*Heading
** Job name: Purevitrimer-0pcnt-FixZ-1113 Model name: Purevitrimer-0pcnt-FixZ-1113
** Generated by: Abaqus/CAE 2019
*Preprint, echo=NO, model=NO, history=NO, contact=NO
**
** PARTS
**
*Part, name=Vitrimer
*Node
      1,           1.,           1.,           1.
      2,           1.,  0.666666687,           1.
      3,           1.,  0.333333343,           1.
      4,           1.,           0.,           1.
      5,           1.,           1.,  0.666666687
      6,           1.,  0.666666687,  0.666666687
      7,           1.,  0.333333343,  0.666666687
      8,           1.,           0.,  0.666666687
      9,           1.,           1.,  0.333333343
     10,           1.,  0.666666687,  0.333333343
     11,           1.,  0.333333343,  0.333333343
     12,           1.,           0.,  0.333333343
     13,           1.,           1.,           0.
     14,           1.,  0.666666687,           0.
     15,           1.,  0.333333343,           0.
     16,           1.,           0.,           0.
     17,  0.666666687,           1.,           1.
     18,  0.666666687,  0.666666687,           1.
     19,  0.666666687,  0.333333343,           1.
     20,  0.666666687,           0.,           1.
     21,  0.666666687,           1.,  0.666666687
     22,  0.666666687,  0.666666687,  0.666666687
     23,  0.666666687,  0.333333343,  0.666666687
     24,  0.666666687,           0.,  0.666666687
     25,  0.666666687,           1.,  0.333333343
     26,  0.666666687,  0.666666687,  0.333333343
     27,  0.666666687,  0.333333343,  0.333333343
     28,  0.666666687,           0.,  0.333333343
     29,  0.666666687,           1.,           0.
     30,  0.666666687,  0.666666687,           0.
     31,  0.666666687,  0.333333343,           0.
     32,  0.666666687,           0.,           0.
     33,  0.333333343,           1.,           1.
     34,  0.333333343,  0.666666687,           1.
     35,  0.333333343,  0.333333343,           1.
     36,  0.333333343,           0.,           1.
     37,  0.333333343,           1.,  0.666666687
     38,  0.333333343,  0.666666687,  0.666666687
     39,  0.333333343,  0.333333343,  0.666666687
     40,  0.333333343,           0.,  0.666666687
     41,  0.333333343,           1.,  0.333333343
     42,  0.333333343,  0.666666687,  0.333333343
     43,  0.333333343,  0.333333343,  0.333333343
     44,  0.333333343,           0.,  0.333333343
     45,  0.333333343,           1.,           0.
     46,  0.333333343,  0.666666687,           0.
     47,  0.333333343,  0.333333343,           0.
     48,  0.333333343,           0.,           0.
     49,           0.,           1.,           1.
     50,           0.,  0.666666687,           1.
     51,           0.,  0.333333343,           1.
     52,           0.,           0.,           1.
     53,           0.,           1.,  0.666666687
     54,           0.,  0.666666687,  0.666666687
     55,           0.,  0.333333343,  0.666666687
     56,           0.,           0.,  0.666666687
     57,           0.,           1.,  0.333333343
     58,           0.,  0.666666687,  0.333333343
     59,           0.,  0.333333343,  0.333333343
     60,           0.,           0.,  0.333333343
     61,           0.,           1.,           0.
     62,           0.,  0.666666687,           0.
     63,           0.,  0.333333343,           0.
     64,           0.,           0.,           0.
*Element, type=C3D8
 1, 17, 18, 22, 21,  1,  2,  6,  5
 2, 18, 19, 23, 22,  2,  3,  7,  6
 3, 19, 20, 24, 23,  3,  4,  8,  7
 4, 21, 22, 26, 25,  5,  6, 10,  9
 5, 22, 23, 27, 26,  6,  7, 11, 10
 6, 23, 24, 28, 27,  7,  8, 12, 11
 7, 25, 26, 30, 29,  9, 10, 14, 13
 8, 26, 27, 31, 30, 10, 11, 15, 14
 9, 27, 28, 32, 31, 11, 12, 16, 15
10, 33, 34, 38, 37, 17, 18, 22, 21
11, 34, 35, 39, 38, 18, 19, 23, 22
12, 35, 36, 40, 39, 19, 20, 24, 23
13, 37, 38, 42, 41, 21, 22, 26, 25
14, 38, 39, 43, 42, 22, 23, 27, 26
15, 39, 40, 44, 43, 23, 24, 28, 27
16, 41, 42, 46, 45, 25, 26, 30, 29
17, 42, 43, 47, 46, 26, 27, 31, 30
18, 43, 44, 48, 47, 27, 28, 32, 31
19, 49, 50, 54, 53, 33, 34, 38, 37
20, 50, 51, 55, 54, 34, 35, 39, 38
21, 51, 52, 56, 55, 35, 36, 40, 39
22, 53, 54, 58, 57, 37, 38, 42, 41
23, 54, 55, 59, 58, 38, 39, 43, 42
24, 55, 56, 60, 59, 39, 40, 44, 43
25, 57, 58, 62, 61, 41, 42, 46, 45
26, 58, 59, 63, 62, 42, 43, 47, 46
27, 59, 60, 64, 63, 43, 44, 48, 47
*Nset, nset=Set-1, generate
  1,  64,   1
*Elset, elset=Set-1, generate
  1,  27,   1
** Section: Matrix
*Solid Section, elset=Set-1, material=Vitrimer
,
*End Part
**  
**
** ASSEMBLY
**
*Assembly, name=Assembly
**  
*Instance, name=Vitrimer-1, part=Vitrimer
*End Instance
**  
*Nset, nset=Set-1, instance=Vitrimer-1, generate
  1,  16,   1
*Elset, elset=Set-1, instance=Vitrimer-1, generate
 1,  9,  1
*Nset, nset=Set-2, instance=Vitrimer-1, generate
  1,  61,   4
*Elset, elset=Set-2, instance=Vitrimer-1, generate
  1,  25,   3
*Nset, nset=Set-3, instance=Vitrimer-1
 13, 14, 15, 16, 29, 30, 31, 32, 45, 46, 47, 48, 61, 62, 63, 64
*Elset, elset=Set-3, instance=Vitrimer-1
  7,  8,  9, 16, 17, 18, 25, 26, 27
*Nset, nset=Set-4, instance=Vitrimer-1
 52,
*Nset, nset=Set-5, instance=Vitrimer-1, generate
  1,  64,   1
*Elset, elset=Set-5, instance=Vitrimer-1, generate
  1,  27,   1
*Nset, nset=Set-6, instance=Vitrimer-1, generate
  1,  61,   4
*Elset, elset=Set-6, instance=Vitrimer-1, generate
  1,  25,   3
*Nset, nset=Set-7, instance=Vitrimer-1, generate
  4,  64,   4
*Elset, elset=Set-7, instance=Vitrimer-1, generate
  3,  27,   3
*Nset, nset=Set-8, instance=Vitrimer-1, generate
  4,  52,  16
*Elset, elset=Set-8, instance=Vitrimer-1, generate
  3,  21,   9
*Nset, nset=Set-9, instance=Vitrimer-1, generate
 52,  64,   4
*Elset, elset=Set-9, instance=Vitrimer-1, generate
 21,  27,   3
*Nset, nset=Set-10, instance=Vitrimer-1
 52,
*Nset, nset=Set-11, instance=Vitrimer-1, generate
 49,  52,   1
*Elset, elset=Set-11, instance=Vitrimer-1, generate
 19,  21,   1
*Nset, nset=Set-12, instance=Vitrimer-1
 64,
*Nset, nset=Set-13, instance=Vitrimer-1, generate
 49,  64,   1
*Elset, elset=Set-13, instance=Vitrimer-1, generate
 19,  27,   1
*Nset, nset=Set-14, instance=Vitrimer-1
  1,  2,  3,  4, 17, 18, 19, 20, 33, 34, 35, 36, 49, 50, 51, 52
*Elset, elset=Set-14, instance=Vitrimer-1
  1,  2,  3, 10, 11, 12, 19, 20, 21
*Nset, nset=Set-15, instance=Vitrimer-1
 52,
*Nset, nset=Set-16, instance=Vitrimer-1, generate
  1,  61,   4
*Elset, elset=Set-16, instance=Vitrimer-1, generate
  1,  25,   3
*Nset, nset=Set-17, instance=Vitrimer-1
  1,  2,  3,  4, 17, 18, 19, 20, 33, 34, 35, 36, 49, 50, 51, 52
*Elset, elset=Set-17, instance=Vitrimer-1
  1,  2,  3, 10, 11, 12, 19, 20, 21
*Nset, nset=Set-18, instance=Vitrimer-1
 13, 14, 15, 16, 29, 30, 31, 32, 45, 46, 47, 48, 61, 62, 63, 64
*Elset, elset=Set-18, instance=Vitrimer-1
  7,  8,  9, 16, 17, 18, 25, 26, 27
*End Assembly
*Amplitude, name=Cooling1
             0.,           163.1,             60.,           161.4,            120.,           158.9,            180.,           155.8
           240.,           153.5,            300.,           150.6,            360.,            148.,            420.,           145.2
           480.,            142.,            540.,           138.7,            600.,           135.4,            660.,           131.9
           720.,           128.7,            780.,           125.2,            840.,           121.7,            900.,            119.
           960.,           115.9,           1020.,           112.6,           1080.,            110.,           1140.,           107.4
          1200.,           104.3,           1260.,           101.3,           1320.,            97.8,           1380.,            95.3
          1440.,            92.4,           1500.,            89.6,           1560.,            86.6,           1620.,            84.2
          1680.,            81.7,           1740.,            78.9,           1800.,            76.2,           1860.,            73.5
          1920.,            71.4,           1980.,            68.8,           2040.,            65.9,           2100.,            64.1
          2160.,            61.5,           2220.,            58.7,           2280.,             56.,           2340.,             54.
          2400.,            51.4,           2460.,             49.,           2520.,            46.1,           2580.,            43.7
          2640.,            40.8,           2700.,            38.2,           2760.,            35.3,           2820.,            32.5
*Amplitude, name=Cooling2
             0.,           197.3,             60.,           196.6,            120.,           194.9,            180.,            192.
           240.,           188.4,            300.,           185.4,            360.,           182.3,            420.,            179.
           480.,            176.,            540.,           172.9,            600.,           169.7,            660.,           166.7
           720.,           163.7,            780.,           160.4,            840.,           157.2,            900.,           154.4
           960.,           151.1,           1020.,           147.9,           1080.,           145.2,           1140.,           142.2
          1200.,           139.3,           1260.,           136.4,           1320.,           133.5,           1380.,           130.6
          1440.,           128.1,           1500.,           125.5,           1560.,           122.7,           1620.,           120.5
          1680.,            118.,           1740.,           115.8,           1800.,           113.6,           1860.,           110.8
          1920.,            109.,           1980.,           106.6,           2040.,           104.2,           2100.,           102.2
          2160.,            99.5,           2220.,            97.8,           2280.,            95.9,           2340.,            93.8
          2400.,             92.,           2460.,            89.9,           2520.,            87.9,           2580.,            86.1
          2640.,            84.1,           2700.,            82.3,           2760.,            80.6,           2820.,            78.9
          2880.,            76.9,           2940.,            75.3,           3000.,            73.8,           3060.,             72.
          3120.,            70.4,           3180.,            68.8,           3240.,            67.3,           3300.,            65.5
          3360.,            64.1,           3420.,             62.,           3480.,            59.3,           3540.,            56.3
          3600.,            53.2,           3660.,            49.8,           3720.,            46.2,           3780.,            42.9
          3840.,            39.4,           3900.,            35.7,           3960.,            33.7,           4020.,            31.7
*Amplitude, name=Curing
             0.,           163.1,             60.,           163.1,            120.,           163.1,            180.,           163.1
           240.,           163.1,            300.,           163.1,            360.,           163.1,            420.,           163.1
           480.,           163.1,            540.,           163.1,            600.,           163.1,            660.,           163.1
           720.,           163.1,            780.,           163.1,            840.,           163.1,            900.,           163.1
           960.,           163.1,           1020.,           163.1,           1080.,           163.1,           1140.,           163.1
          1200.,           163.1,           1260.,           163.1,           1320.,           163.1,           1380.,           163.1
          1440.,           163.1,           1500.,           163.1,           1560.,           163.1,           1620.,           163.1
          1680.,           163.1,           1740.,           163.1,           1800.,           163.1,           1860.,           163.1
          1920.,           163.1,           1980.,           163.1,           2040.,           163.1,           2100.,           163.1
          2160.,           163.1,           2220.,           163.1,           2280.,           163.1,           2340.,           163.1
          2400.,           163.1,           2460.,           163.1,           2520.,           163.1,           2580.,           163.1
          2640.,           163.1,           2700.,           163.1,           2760.,           163.1,           2820.,           163.1
          2880.,           163.1,           2940.,           163.1,           3000.,           163.1,           3060.,           163.1
          3120.,           163.1,           3180.,           163.1,           3240.,           163.1,           3300.,           163.1
          3360.,           163.1,           3420.,           163.1,           3480.,           163.1,           3540.,           163.1
          3600.,           163.1,           3660.,           163.1,           3720.,           163.1,           3780.,           163.1
          3840.,           163.1,           3900.,           163.1,           3960.,           163.1,           4020.,           163.1
          4080.,           163.1,           4140.,           163.1,           4200.,           163.1,           4260.,           163.1
          4320.,           163.1,           4380.,           163.1,           4440.,           163.1,           4500.,           163.1
          4560.,           163.1,           4620.,           163.1,           4680.,           163.1,           4740.,           163.1
          4800.,           163.1,           4860.,           163.1,           4920.,           163.1,           4980.,           163.1
          5040.,           163.1,           5100.,           163.1,           5160.,           163.1,           5220.,           163.1
          5280.,           163.1,           5340.,           163.1,           5400.,           163.1,           5460.,           163.1
          5520.,           163.1,           5580.,           163.1,           5640.,           163.1,           5700.,           163.1
          5760.,           163.1,           5820.,           163.1,           5880.,           163.1,           5940.,           163.1
          6000.,           163.1,           6060.,           163.1,           6120.,           163.1,           6180.,           163.1
          6240.,           163.1,           6300.,           163.1,           6360.,           163.1,           6420.,           163.1
          6480.,           163.1,           6540.,           163.1,           6600.,           163.1,           6660.,           163.1
          6720.,           163.1,           6780.,           163.1,           6840.,           163.1,           6900.,           163.1
          6960.,           163.1,           7020.,           163.1,           7080.,           163.1,           7140.,           163.1
          7200.,           163.1,           7260.,           163.1,           7320.,           163.1,           7380.,           163.1
          7440.,           163.1,           7500.,           163.1,           7560.,           163.1,           7620.,           163.1
          7680.,           163.1,           7740.,           163.1,           7800.,           163.1,           7860.,           163.1
          7920.,           163.1,           7980.,           163.1,           8040.,           163.1,           8100.,           163.1
          8160.,           163.1,           8220.,           163.1,           8280.,           163.1,           8340.,           163.1
          8400.,           163.1,           8460.,           163.1,           8520.,           163.1,           8580.,           163.1
          8640.,           163.1,           8700.,           163.1,           8760.,           163.1,           8820.,           163.1
          8880.,           163.1,           8940.,           163.1,           9000.,           163.1,           9060.,           163.1
          9120.,           163.1,           9180.,           163.1,           9240.,           163.1,           9300.,           163.1
          9360.,           163.1,           9420.,           163.1,           9480.,           163.1,           9540.,           163.1
          9600.,           163.1,           9660.,           163.1,           9720.,           163.1,           9780.,           163.1
          9840.,           163.1,           9900.,           163.1,           9960.,           163.1,          10020.,           163.1
         10080.,           163.1,          10140.,           163.1,          10200.,           163.1,          10260.,           163.1
         10320.,           163.1,          10380.,           163.1,          10440.,           163.1,          10500.,           163.1
         10560.,           163.1,          10620.,           163.1,          10680.,           163.1,          10740.,           163.1
         10800.,           163.1,          10860.,           163.1,          10920.,           163.1,          10980.,           163.1
         11040.,           163.1,          11100.,           163.1,          11160.,           163.1,          11220.,           163.1
         11280.,           163.1,          11340.,           163.1,          11400.,           163.1,          11460.,           163.1
         11520.,           163.1,          11580.,           163.1,          11640.,           163.1,          11700.,           163.1
         11760.,           163.1,          11820.,           163.1,          11880.,           163.1,          11940.,           163.1
         12000.,           163.1,          12060.,           163.1,          12120.,           163.1,          12180.,           163.1
         12240.,           163.1,          12300.,           163.1,          12360.,           163.1,          12420.,           163.1
         12480.,           163.1,          12540.,           163.1,          12600.,           163.1,          12660.,           163.1
         12720.,           163.1,          12780.,           163.1,          12840.,           163.1,          12900.,           163.1
         12960.,           163.1,          13020.,           163.1,          13080.,           163.1,          13140.,           163.1
         13200.,           163.1,          13260.,           163.1,          13320.,           163.1,          13380.,           163.1
         13440.,           163.1,          13500.,           163.1,          13560.,           163.1,          13620.,           163.1
         13680.,           163.1,          13740.,           163.1,          13800.,           163.1,          13860.,           163.1
         13920.,           163.1,          13980.,           163.1,          14040.,           163.1,          14100.,           163.1
         14160.,           163.1,          14220.,           163.1,          14280.,           163.1,          14340.,           163.1
         14400.,           163.1,          14460.,           163.1,          14520.,           163.1,          14580.,           163.1
         14640.,           163.1,          14700.,           163.1,          14760.,           163.1,          14820.,           163.1
         14880.,           163.1,          14940.,           163.1,          15000.,           163.1,          15060.,           163.1
         15120.,           163.1,          15180.,           163.1,          15240.,           163.1,          15300.,           163.1
         15360.,           163.1,          15420.,           163.1,          15480.,           163.1,          15540.,           163.1
         15600.,           163.1,          15660.,           163.1,          15720.,           163.1,          15780.,           163.1
         15840.,           163.1,          15900.,           163.1,          15960.,           163.1,          16020.,           163.1
         16080.,           163.1,          16140.,           163.1,          16200.,           163.1,          16260.,           163.1
         16320.,           163.1,          16380.,           163.1,          16440.,           163.1,          16500.,           163.1
         16560.,           163.1,          16620.,           163.1,          16680.,           163.1,          16740.,           163.1
         16800.,           163.1,          16860.,           163.1,          16920.,           163.1,          16980.,           163.1
         17040.,           163.1,          17100.,           163.1,          17160.,           163.1,          17220.,           163.1
         17280.,           163.1,          17340.,           163.1,          17400.,           163.1,          17460.,           163.1
         17520.,           163.1,          17580.,           163.1,          17640.,           163.1,          17700.,           163.1
         17760.,           163.1,          17820.,           163.1,          17880.,           163.1,          17940.,           163.1
         18000.,           163.1,          18060.,           163.1,          18120.,           163.1,          18180.,           163.1
         18240.,           163.1,          18300.,           163.1,          18360.,           163.1,          18420.,           163.1
         18480.,           163.1,          18540.,           163.1,          18600.,           163.1,          18660.,           163.1
         18720.,           163.1,          18780.,           163.1,          18840.,           163.1,          18900.,           163.1
         18960.,           163.1,          19020.,           163.1,          19080.,           163.1,          19140.,           163.1
         19200.,           163.1,          19260.,           163.1,          19320.,           163.1,          19380.,           163.1
         19440.,           163.1,          19500.,           163.1,          19560.,           163.1,          19620.,           163.1
         19680.,           163.1,          19740.,           163.1,          19800.,           163.1,          19860.,           163.1
         19920.,           163.1,          19980.,           163.1,          20040.,           163.1,          20100.,           163.1
         20160.,           163.1,          20220.,           163.1,          20280.,           163.1,          20340.,           163.1
         20400.,           163.1,          20460.,           163.1,          20520.,           163.1,          20580.,           163.1
         20640.,           163.1,          20700.,           163.1,          20760.,           163.1,          20820.,           163.1
         20880.,           163.1,          20940.,           163.1,          21000.,           163.1,          21060.,           163.1
         21120.,           163.1,          21180.,           163.1,          21240.,           163.1,          21300.,           163.1
         21360.,           163.1,          21420.,           163.1,          21480.,           163.1,          21540.,           163.1
         21600.,           163.1,          21660.,           163.1,          21720.,           163.1,          21780.,           163.1
         21840.,           163.1,          21900.,           163.1,          21960.,           163.1,          22020.,           163.1
         22080.,           163.1,          22140.,           163.1,          22200.,           163.1,          22260.,           163.1
         22320.,           163.1,          22380.,           163.1,          22440.,           163.1,          22500.,           163.1
         22560.,           163.1,          22620.,           163.1,          22680.,           163.1,          22740.,           163.1
         22800.,           163.1,          22860.,           163.1,          22920.,           163.1,          22980.,           163.1
         23040.,           163.1,          23100.,           163.1,          23160.,           163.1,          23220.,           163.1
         23280.,           163.1,          23340.,           163.1,          23400.,           163.1,          23460.,           163.1
         23520.,           163.1,          23580.,           163.1,          23640.,           163.1,          23700.,           163.1
         23760.,           163.1,          23820.,           163.1,          23880.,           163.1,          23940.,           163.1
         24000.,           163.1,          24060.,           163.1,          24120.,           163.1,          24180.,           163.1
         24240.,           163.1,          24300.,           163.1,          24360.,           163.1,          24420.,           163.1
         24480.,           163.1,          24540.,           163.1,          24600.,           163.1,          24660.,           163.1
         24720.,           163.1,          24780.,           163.1,          24840.,           163.1,          24900.,           163.1
         24960.,           163.1,          25020.,           163.1,          25080.,           163.1,          25140.,           163.1
         25200.,           163.1,          25260.,           163.1,          25320.,           163.1,          25380.,           163.1
         25440.,           163.1,          25500.,           163.1,          25560.,           163.1,          25620.,           163.1
         25680.,           163.1,          25740.,           163.1,          25800.,           163.1,          25860.,           163.1
         25920.,           163.1,          25980.,           163.1,          26040.,           163.1,          26100.,           163.1
         26160.,           163.1,          26220.,           163.1,          26280.,           163.1,          26340.,           163.1
         26400.,           163.1,          26460.,           163.1,          26520.,           163.1,          26580.,           163.1
         26640.,           163.1,          26700.,           163.1,          26760.,           163.1,          26820.,           163.1
         26880.,           163.1,          26940.,           163.1,          27000.,           163.1,          27060.,           163.1
         27120.,           163.1,          27180.,           163.1,          27240.,           163.1,          27300.,           163.1
         27360.,           163.1,          27420.,           163.1,          27480.,           163.1,          27540.,           163.1
         27600.,           163.1,          27660.,           163.1,          27720.,           163.1,          27780.,           163.1
         27840.,           163.1,          27900.,           163.1,          27960.,           163.1,          28020.,           163.1
         28080.,           163.1,          28140.,           163.1,          28200.,           163.1,          28260.,           163.1
         28320.,           163.1,          28380.,           163.1,          28440.,           163.1,          28500.,           163.1
         28560.,           163.1,          28620.,           163.1,          28680.,           163.1,          28740.,           163.1
         28800.,           163.1,          28860.,           163.1,          28920.,           163.1,          28980.,           163.1
         29040.,           163.1,          29100.,           163.1,          29160.,           163.1,          29220.,           163.1
         29280.,           163.1,          29340.,           163.1,          29400.,           163.1,          29460.,           163.1
         29520.,           163.1,          29580.,           163.1,          29640.,           163.1,          29700.,           163.1
         29760.,           163.1,          29820.,           163.1,          29880.,           163.1,          29940.,           163.1
         30000.,           163.1,          30060.,           163.1,          30120.,           163.1,          30180.,           163.1
         30240.,           163.1,          30300.,           163.1,          30360.,           163.1,          30420.,           163.1
         30480.,           163.1,          30540.,           163.1,          30600.,           163.1,          30660.,           163.1
         30720.,           163.1,          30780.,           163.1,          30840.,           163.1,          30900.,           163.1
         30960.,           163.1,          31020.,           163.1,          31080.,           163.1,          31140.,           163.1
         31200.,           163.1,          31260.,           163.1,          31320.,           163.1,          31380.,           163.1
         31440.,           163.1,          31500.,           163.1,          31560.,           163.1,          31620.,           163.1
         31680.,           163.1,          31740.,           163.1,          31800.,           163.1,          31860.,           163.1
         31920.,           163.1,          31980.,           163.1,          32040.,           163.1,          32100.,           163.1
         32160.,           163.1,          32220.,           163.1,          32280.,           163.1,          32340.,           163.1
         32400.,           163.1,          32460.,           163.1,          32520.,           163.1,          32580.,           163.1
         32640.,           163.1,          32700.,           163.1,          32760.,           163.1,          32820.,           163.1
         32880.,           163.1,          32940.,           163.1,          33000.,           163.1,          33060.,           163.1
         33120.,           163.1,          33180.,           163.1,          33240.,           163.1,          33300.,           163.1
         33360.,           163.1,          33420.,           163.1,          33480.,           163.1,          33540.,           163.1
         33600.,           163.1,          33660.,           163.1,          33720.,           163.1,          33780.,           163.1
         33840.,           163.1,          33900.,           163.1,          33960.,           163.1,          34020.,           163.1
         34080.,           163.1,          34140.,           163.1,          34200.,           163.1,          34260.,           163.1
         34320.,           163.1,          34380.,           163.1,          34440.,           163.1,          34500.,           163.1
         34560.,           163.1,          34620.,           163.1,          34680.,           163.1,          34740.,           163.1
         34800.,           163.1,          34860.,           163.1,          34920.,           163.1,          34980.,           163.1
         35040.,           163.1,          35100.,           163.1,          35160.,           163.1,          35220.,           163.1
         35280.,           163.1,          35340.,           163.1,          35400.,           163.1,          35460.,           163.1
         35520.,           163.1,          35580.,           163.1,          35640.,           163.1,          35700.,           163.1
         35760.,           163.1,          35820.,           163.1,          35880.,           163.1,          35940.,           163.1
         36000.,           163.1,          36060.,           163.1,          36120.,           163.1,          36180.,           163.1
         36240.,           163.1,          36300.,           163.1,          36360.,           163.1,          36420.,           163.1
         36480.,           163.1,          36540.,           163.1,          36600.,           163.1,          36660.,           163.1
         36720.,           163.1,          36780.,           163.1,          36840.,           163.1,          36900.,           163.1
         36960.,           163.1,          37020.,           163.1,          37080.,           163.1,          37140.,           163.1
         37200.,           163.1,          37260.,           163.1,          37320.,           163.1,          37380.,           163.1
         37440.,           163.1,          37500.,           163.1,          37560.,           163.1,          37620.,           163.1
         37680.,           163.1,          37740.,           163.1,          37800.,           163.1,          37860.,           163.1
         37920.,           163.1,          37980.,           163.1,          38040.,           163.1,          38100.,           163.1
         38160.,           163.1,          38220.,           163.1,          38280.,           163.1,          38340.,           163.1
         38400.,           163.1,          38460.,           163.1,          38520.,           163.1,          38580.,           163.1
         38640.,           163.1,          38700.,           163.1,          38760.,           163.1,          38820.,           163.1
         38880.,           163.1,          38940.,           163.1,          39000.,           163.1,          39060.,           163.1
         39120.,           163.1,          39180.,           163.1,          39240.,           163.1,          39300.,           163.1
         39360.,           163.1,          39420.,           163.1,          39480.,           163.1,          39540.,           163.1
         39600.,           163.1,          39660.,           163.1,          39720.,           163.1,          39780.,           163.1
         39840.,           163.1,          39900.,           163.1,          39960.,           163.1,          40020.,           163.1
         40080.,           163.1,          40140.,           163.1,          40200.,           163.1,          40260.,           163.1
         40320.,           163.1,          40380.,           163.1,          40440.,           163.1,          40500.,           163.1
         40560.,           163.1,          40620.,           163.1,          40680.,           163.1,          40740.,           163.1
         40800.,           163.1,          40860.,           163.1,          40920.,           163.1,          40980.,           163.1
         41040.,           163.1,          41100.,           163.1,          41160.,           163.1,          41220.,           163.1
         41280.,           163.1,          41340.,           163.1,          41400.,           163.1,          41460.,           163.1
         41520.,           163.1,          41580.,           163.1,          41640.,           163.1,          41700.,           163.1
         41760.,           163.1,          41820.,           163.1,          41880.,           163.1,          41940.,           163.1
         42000.,           163.1,          42060.,           163.1,          42120.,           163.1,          42180.,           163.1
         42240.,           163.1,          42300.,           163.1,          42360.,           163.1,          42420.,           163.1
         42480.,           163.1,          42540.,           163.1,          42600.,           163.1,          42660.,           163.1
         42720.,           163.1,          42780.,           163.1,          42840.,           163.1,          42900.,           163.1
         42960.,           163.1,          43020.,           163.1,          43080.,           163.1,          43140.,           163.1
         43200.,           163.1,          43260.,           163.1,          43320.,           163.1,          43380.,           163.1
         43440.,           163.1,          43500.,           163.1,          43560.,           163.1,          43620.,           163.1
         43680.,           163.1,          43740.,           163.1,          43800.,           163.1,          43860.,           163.1
         43920.,           163.1,          43980.,           163.1,          44040.,           163.1,          44100.,           163.1
         44160.,           163.1,          44220.,           163.1,          44280.,           163.1,          44340.,           163.1
         44400.,           163.1,          44460.,           163.1,          44520.,           163.1,          44580.,           163.1
         44640.,           163.1,          44700.,           163.1,          44760.,           163.1,          44820.,           163.1
         44880.,           163.1,          44940.,           163.1,          45000.,           163.1,          45060.,           163.1
         45120.,           163.1,          45180.,           163.1,          45240.,           163.1,          45300.,           163.1
         45360.,           163.1,          45420.,           163.1,          45480.,           163.1,          45540.,           163.1
         45600.,           163.1,          45660.,           163.1,          45720.,           163.1,          45780.,           163.1
         45840.,           163.1,          45900.,           163.1,          45960.,           163.1,          46020.,           163.1
         46080.,           163.1,          46140.,           163.1,          46200.,           163.1,          46260.,           163.1
         46320.,           163.1,          46380.,           163.1,          46440.,           163.1,          46500.,           163.1
         46560.,           163.1,          46620.,           163.1,          46680.,           163.1,          46740.,           163.1
         46800.,           163.1,          46860.,           163.1,          46920.,           163.1,          46980.,           163.1
         47040.,           163.1,          47100.,           163.1,          47160.,           163.1,          47220.,           163.1
         47280.,           163.1,          47340.,           163.1,          47400.,           163.1,          47460.,           163.1
         47520.,           163.1,          47580.,           163.1,          47640.,           163.1,          47700.,           163.1
         47760.,           163.1,          47820.,           163.1,          47880.,           163.1,          47940.,           163.1
         48000.,           163.1,          48060.,           163.1,          48120.,           163.1,          48180.,           163.1
         48240.,           163.1,          48300.,           163.1,          48360.,           163.1,          48420.,           163.1
         48480.,           163.1,          48540.,           163.1,          48600.,           163.1,          48660.,           163.1
         48720.,           163.1,          48780.,           163.1,          48840.,           163.1,          48900.,           163.1
         48960.,           163.1,          49020.,           163.1,          49080.,           163.1,          49140.,           163.1
         49200.,           163.1,          49260.,           163.1,          49320.,           163.1,          49380.,           163.1
         49440.,           163.1,          49500.,           163.1,          49560.,           163.1,          49620.,           163.1
         49680.,           163.1,          49740.,           163.1,          49800.,           163.1,          49860.,           163.1
         49920.,           163.1,          49980.,           163.1,          50040.,           163.1,          50100.,           163.1
         50160.,           163.1,          50220.,           163.1,          50280.,           163.1,          50340.,           163.1
         50400.,           163.1,          50460.,           163.1,          50520.,           163.1,          50580.,           163.1
         50640.,           163.1,          50700.,           163.1,          50760.,           163.1,          50820.,           163.1
         50880.,           163.1,          50940.,           163.1,          51000.,           163.1,          51060.,           163.1
         51120.,           163.1,          51180.,           163.1,          51240.,           163.1,          51300.,           163.1
         51360.,           163.1,          51420.,           163.1,          51480.,           163.1,          51540.,           163.1
         51600.,           163.1,          51660.,           163.1,          51720.,           163.1,          51780.,           163.1
         51840.,           163.1,          51900.,           163.1,          51960.,           163.1,          52020.,           163.1
         52080.,           163.1,          52140.,           163.1,          52200.,           163.1,          52260.,           163.1
         52320.,           163.1,          52380.,           163.1,          52440.,           163.1,          52500.,           163.1
         52560.,           163.1,          52620.,           163.1,          52680.,           163.1,          52740.,           163.1
         52800.,           163.1,          52860.,           163.1,          52920.,           163.1,          52980.,           163.1
         53040.,           163.1,          53100.,           163.1,          53160.,           163.1,          53220.,           163.1
         53280.,           163.1,          53340.,           163.1,          53400.,           163.1,          53460.,           163.1
         53520.,           163.1,          53580.,           163.1,          53640.,           163.1,          53700.,           163.1
         53760.,           163.1,          53820.,           163.1,          53880.,           163.1,          53940.,           163.1
         54000.,           163.1,          54060.,           163.1,          54120.,           163.1,          54180.,           163.1
         54240.,           163.1,          54300.,           163.1,          54360.,           163.1,          54420.,           163.1
         54480.,           163.1,          54540.,           163.1,          54600.,           163.1,          54660.,           163.1
         54720.,           163.1,          54780.,           163.1,          54840.,           163.1,          54900.,           163.1
         54960.,           163.1,          55020.,           163.1,          55080.,           163.1,          55140.,           163.1
         55200.,           163.1,          55260.,           163.1,          55320.,           163.1,          55380.,           163.1
         55440.,           163.1,          55500.,           163.1,          55560.,           163.1,          55620.,           163.1
         55680.,           163.1,          55740.,           163.1,          55800.,           163.1,          55860.,           163.1
         55920.,           163.1,          55980.,           163.1,          56040.,           163.1,          56100.,           163.1
         56160.,           163.1,          56220.,           163.1,          56280.,           163.1,          56340.,           163.1
         56400.,           163.1,          56460.,           163.1,          56520.,           163.1,          56580.,           163.1
         56640.,           163.1,          56700.,           163.1,          56760.,           163.1,          56820.,           163.1
         56880.,           163.1,          56940.,           163.1,          57000.,           163.1,          57060.,           163.1
         57120.,           163.1,          57180.,           163.1,          57240.,           163.1,          57300.,           163.1
         57360.,           163.1,          57420.,           163.1,          57480.,           163.1,          57540.,           163.1
         57600.,           163.1,          57660.,           163.1,          57720.,           163.1,          57780.,           163.1
         57840.,           163.1,          57900.,           163.1,          57960.,           163.1,          58020.,           163.1
         58080.,           163.1,          58140.,           163.1,          58200.,           163.1,          58260.,           163.1
         58320.,           163.1,          58380.,           163.1,          58440.,           163.1,          58500.,           163.1
         58560.,           163.1,          58620.,           163.1,          58680.,           163.1,          58740.,           163.1
         58800.,           163.1,          58860.,           163.1,          58920.,           163.1,          58980.,           163.1
         59040.,           163.1,          59100.,           163.1,          59160.,           163.1,          59220.,           163.1
         59280.,           163.1,          59340.,           163.1,          59400.,           163.1,          59460.,           163.1
         59520.,           163.1,          59580.,           163.1,          59640.,           163.1,          59700.,           163.1
         59760.,           163.1,          59820.,           163.1,          59880.,           163.1,          59940.,           163.1
         60000.,           163.1,          60060.,           163.1,          60120.,           163.1,          60180.,           163.1
         60240.,           163.1,          60300.,           163.1,          60360.,           163.1,          60420.,           163.1
         60480.,           163.1,          60540.,           163.1,          60600.,           163.1,          60660.,           163.1
         60720.,           163.1,          60780.,           163.1,          60840.,           163.1,          60900.,           163.1
         60960.,           163.1,          61020.,           163.1,          61080.,           163.1,          61140.,           163.1
         61200.,           163.1,          61260.,           163.1,          61320.,           163.1,          61380.,           163.1
         61440.,           163.1,          61500.,           163.1,          61560.,           163.1,          61620.,           163.1
         61680.,           163.1,          61740.,           163.1,          61800.,           163.1,          61860.,           163.1
         61920.,           163.1,          61980.,           163.1,          62040.,           163.1,          62100.,           163.1
         62160.,           163.1,          62220.,           163.1,          62280.,           163.1,          62340.,           163.1
         62400.,           163.1,          62460.,           163.1,          62520.,           163.1,          62580.,           163.1
         62640.,           163.1,          62700.,           163.1,          62760.,           163.1,          62820.,           163.1
         62880.,           163.1,          62940.,           163.1,          63000.,           163.1,          63060.,           163.1
         63120.,           163.1,          63180.,           163.1,          63240.,           163.1,          63300.,           163.1
         63360.,           163.1,          63420.,           163.1,          63480.,           163.1,          63540.,           163.1
         63600.,           163.1,          63660.,           163.1,          63720.,           163.1,          63780.,           163.1
         63840.,           163.1,          63900.,           163.1,          63960.,           163.1,          64020.,           163.1
         64080.,           163.1,          64140.,           163.1,          64200.,           163.1,          64260.,           163.1
         64320.,           163.1,          64380.,           163.1,          64440.,           163.1,          64500.,           163.1
         64560.,           163.1,          64620.,           163.1,          64680.,           163.1,          64740.,           163.1
         64800.,           163.1,          64860.,           163.1,          64920.,           163.1,          64980.,           163.1
         65040.,           163.1,          65100.,           163.1,          65160.,           163.1,          65220.,           163.1
         65280.,           163.1,          65340.,           163.1,          65400.,           163.1,          65460.,           163.1
         65520.,           163.1,          65580.,           163.1,          65640.,           163.1,          65700.,           163.1
         65760.,           163.1,          65820.,           163.1,          65880.,           163.1,          65940.,           163.1
         66000.,           163.1,          66060.,           163.1,          66120.,           163.1,          66180.,           163.1
         66240.,           163.1,          66300.,           163.1,          66360.,           163.1,          66420.,           163.1
         66480.,           163.1,          66540.,           163.1,          66600.,           163.1,          66660.,           163.1
         66720.,           163.1,          66780.,           163.1,          66840.,           163.1,          66900.,           163.1
         66960.,           163.1,          67020.,           163.1,          67080.,           163.1,          67140.,           163.1
         67200.,           163.1,          67260.,           163.1,          67320.,           163.1,          67380.,           163.1
         67440.,           163.1,          67500.,           163.1,          67560.,           163.1,          67620.,           163.1
         67680.,           163.1,          67740.,           163.1,          67800.,           163.1,          67860.,           163.1
         67920.,           163.1,          67980.,           163.1,          68040.,           163.1,          68100.,           163.1
         68160.,           163.1,          68220.,           163.1,          68280.,           163.1,          68340.,           163.1
         68400.,           163.1,          68460.,           163.1,          68520.,           163.1,          68580.,           163.1
         68640.,           163.1,          68700.,           163.1,          68760.,           163.1,          68820.,           163.1
         68880.,           163.1,          68940.,           163.1,          69000.,           163.1,          69060.,           163.1
         69120.,           163.1,          69180.,           163.1,          69240.,           163.1,          69300.,           163.1
         69360.,           163.1,          69420.,           163.1,          69480.,           163.1,          69540.,           163.1
         69600.,           163.1,          69660.,           163.1,          69720.,           163.1,          69780.,           163.1
         69840.,           163.1,          69900.,           163.1,          69960.,           163.1,          70020.,           163.1
         70080.,           163.1,          70140.,           163.1,          70200.,           163.1,          70260.,           163.1
         70320.,           163.1,          70380.,           163.1,          70440.,           163.1,          70500.,           163.1
         70560.,           163.1,          70620.,           163.1,          70680.,           163.1,          70740.,           163.1
         70800.,           163.1,          70860.,           163.1,          70920.,           163.1,          70980.,           163.1
         71040.,           163.1,          71100.,           163.1,          71160.,           163.1,          71220.,           163.1
         71280.,           163.1,          71340.,           163.1,          71400.,           163.1,          71460.,           163.1
         71520.,           163.1,          71580.,           163.1,          71640.,           163.1,          71700.,           163.1
         71760.,           163.1,          71820.,           163.1,          71880.,           163.1,          71940.,           163.1
         72000.,           163.1,          72060.,           163.1,          72120.,           163.1,          72180.,           163.1
         72240.,           163.1,          72300.,           163.1,          72360.,           163.1,          72420.,           163.1
         72480.,           163.1,          72540.,           163.1,          72600.,           163.1,          72660.,           163.1
         72720.,           163.1,          72780.,           163.1,          72840.,           163.1,          72900.,           163.1
         72960.,           163.1,          73020.,           163.1,          73080.,           163.1,          73140.,           163.1
         73200.,           163.1,          73260.,           163.1,          73320.,           163.1,          73380.,           163.1
         73440.,           163.1,          73500.,           163.1,          73560.,           163.1,          73620.,           163.1
         73680.,           163.1,          73740.,           163.1,          73800.,           163.1,          73860.,           163.1
         73920.,           163.1,          73980.,           163.1,          74040.,           163.1,          74100.,           163.1
         74160.,           163.1,          74220.,           163.1,          74280.,           163.1,          74340.,           163.1
         74400.,           163.1,          74460.,           163.1,          74520.,           163.1,          74580.,           163.1
         74640.,           163.1,          74700.,           163.1,          74760.,           163.1,          74820.,           163.1
         74880.,           163.1,          74940.,           163.1,          75000.,           163.1,          75060.,           163.1
         75120.,           163.1,          75180.,           163.1,          75240.,           163.1,          75300.,           163.1
         75360.,           163.1,          75420.,           163.1,          75480.,           163.1,          75540.,           163.1
         75600.,           163.1,          75660.,           163.1,          75720.,           163.1,          75780.,           163.1
         75840.,           163.1,          75900.,           163.1,          75960.,           163.1,          76020.,           163.1
         76080.,           163.1,          76140.,           163.1,          76200.,           163.1,          76260.,           163.1
         76320.,           163.1,          76380.,           163.1,          76440.,           163.1,          76500.,           163.1
         76560.,           163.1,          76620.,           163.1,          76680.,           163.1,          76740.,           163.1
         76800.,           163.1,          76860.,           163.1,          76920.,           163.1,          76980.,           163.1
         77040.,           163.1,          77100.,           163.1,          77160.,           163.1,          77220.,           163.1
         77280.,           163.1,          77340.,           163.1,          77400.,           163.1,          77460.,           163.1
         77520.,           163.1,          77580.,           163.1,          77640.,           163.1,          77700.,           163.1
         77760.,           163.1,          77820.,           163.1,          77880.,           163.1,          77940.,           163.1
         78000.,           163.1,          78060.,           163.1,          78120.,           163.1,          78180.,           163.1
         78240.,           163.1,          78300.,           163.1,          78360.,           163.1,          78420.,           163.1
         78480.,           163.1,          78540.,           163.1,          78600.,           163.1,          78660.,           163.1
         78720.,           163.1,          78780.,           163.1,          78840.,           163.1,          78900.,           163.1
         78960.,           163.1,          79020.,           163.1,          79080.,           163.1,          79140.,           163.1
         79200.,           163.1,          79260.,           163.1,          79320.,           163.1,          79380.,           163.1
         79440.,           163.1,          79500.,           163.1,          79560.,           163.1,          79620.,           163.1
         79680.,           163.1,          79740.,           163.1,          79800.,           163.1,          79860.,           163.1
         79920.,           163.1,          79980.,           163.1,          80040.,           163.1,          80100.,           163.1
         80160.,           163.1,          80220.,           163.1,          80280.,           163.1,          80340.,           163.1
         80400.,           163.1,          80460.,           163.1,          80520.,           163.1,          80580.,           163.1
         80640.,           163.1,          80700.,           163.1,          80760.,           163.1,          80820.,           163.1
         80880.,           163.1,          80940.,           163.1,          81000.,           163.1,          81060.,           163.1
         81120.,           163.1,          81180.,           163.1,          81240.,           163.1,          81300.,           163.1
         81360.,           163.1,          81420.,           163.1,          81480.,           163.1,          81540.,           163.1
         81600.,           163.1,          81660.,           163.1,          81720.,           163.1,          81780.,           163.1
         81840.,           163.1,          81900.,           163.1,          81960.,           163.1,          82020.,           163.1
         82080.,           163.1,          82140.,           163.1,          82200.,           163.1,          82260.,           163.1
         82320.,           163.1,          82380.,           163.1,          82440.,           163.1,          82500.,           163.1
         82560.,           163.1,          82620.,           163.1,          82680.,           163.1,          82740.,           163.1
         82800.,           163.1,          82860.,           163.1,          82920.,           163.1,          82980.,           163.1
         83040.,           163.1,          83100.,           163.1,          83160.,           163.1,          83220.,           163.1
         83280.,           163.1,          83340.,           163.1,          83400.,           163.1,          83460.,           163.1
         83520.,           163.1,          83580.,           163.1,          83640.,           163.1,          83700.,           163.1
         83760.,           163.1,          83820.,           163.1,          83880.,           163.1,          83940.,           163.1
         84000.,           163.1,          84060.,           163.1,          84120.,           163.1,          84180.,           163.1
         84240.,           163.1,          84300.,           163.1,          84360.,           163.1,          84420.,           163.1
         84480.,           163.1,          84540.,           163.1,          84600.,           163.1,          84660.,           163.1
         84720.,           163.1,          84780.,           163.1,          84840.,           163.1,          84900.,           163.1
         84960.,           163.1,          85020.,           163.1,          85080.,           163.1,          85140.,           163.1
         85200.,           163.1,          85260.,           163.1,          85320.,           163.1,          85380.,           163.1
         85440.,           163.1,          85500.,           163.1,          85560.,           163.1,          85620.,           163.1
         85680.,           163.1,          85740.,           163.1,          85800.,           163.1,          85860.,           163.1
         85920.,           163.1,          85980.,           163.1,          86040.,           163.1,          86100.,           163.1
         86160.,           163.1,          86220.,           163.1,          86280.,           163.1,          86340.,           163.1
         86400.,           163.1
*Amplitude, name=Heating
             0.,            25.4,             60.,            26.6,            120.,            30.5,            180.,            34.6
           240.,            39.1,            300.,             43.,            360.,            47.2,            420.,            51.5
           480.,             55.,            540.,             59.,            600.,            62.7,            660.,            66.9
           720.,            70.4,            780.,            74.8,            840.,            78.8,            900.,            82.7
           960.,             87.,           1020.,            90.9,           1080.,            95.4,           1140.,            98.5
          1200.,           102.8,           1260.,            107.,           1320.,           111.1,           1380.,           115.7
          1440.,           118.9,           1500.,           122.8,           1560.,           127.7,           1620.,           131.4
          1680.,           135.4,           1740.,           140.4,           1800.,           143.8,           1860.,           148.1
          1920.,            152.,           1980.,           156.3,           2040.,           159.7,           2100.,           163.9
          2160.,           168.2,           2220.,           172.8,           2280.,           176.6,           2340.,           180.3
          2400.,           182.1
*Amplitude, name=Hold1_LT
             0.,            32.5,             60.,            31.6,            120.,            31.7,            180.,            30.2
           240.,            30.4,            300.,            30.7,            360.,            29.3,            420.,            28.9
           480.,            29.6,            540.,            28.5,            600.,             29.,            660.,            28.3
           720.,            27.6,            780.,            28.1,            840.,            27.3,            900.,            27.2
           960.,            27.7,           1020.,            27.2,           1080.,            26.8,           1140.,            27.1
          1200.,            26.8,           1260.,            26.6,           1320.,            26.6,           1380.,            26.2
          1440.,            26.1,           1500.,            26.3,           1560.,            25.9,           1620.,            26.3
          1680.,            26.7,           1740.,            26.3,           1800.,            26.1,           1860.,            25.8
          1920.,            25.9,           1980.,            25.7,           2040.,            25.7,           2100.,            25.4
          2160.,            25.7,           2220.,            25.9,           2280.,            25.7,           2340.,            25.5
          2400.,            25.4,           2460.,            25.3,           2520.,            25.4,           2580.,            25.3
          2640.,            25.4,           2700.,            25.4
*Amplitude, name=Hold2_HT
             0.,           182.1,             60.,           183.4,            120.,           184.2,            180.,           185.8
           240.,           185.7,            300.,           186.7,            360.,           187.7,            420.,           187.9
           480.,           188.4,            540.,           189.7,            600.,           190.6,            660.,           190.6
           720.,           190.6,            780.,           191.2,            840.,           191.5,            900.,           191.9
           960.,           192.6,           1020.,           192.2,           1080.,           192.8,           1140.,           192.9
          1200.,           193.8,           1260.,           193.4,           1320.,           193.9,           1380.,           193.7
          1440.,           193.9,           1500.,           194.5,           1560.,           194.8,           1620.,           194.5
          1680.,           195.2,           1740.,           194.9,           1800.,           195.2,           1860.,           195.3
          1920.,           195.2,           1980.,           195.6,           2040.,           195.7,           2100.,           195.8
          2160.,           195.7,           2220.,           195.7,           2280.,           195.9,           2340.,           195.4
          2400.,           196.2,           2460.,           196.3,           2520.,           196.3,           2580.,           195.9
          2640.,           196.4,           2700.,           196.6,           2760.,           196.5,           2820.,           197.1
          2880.,           196.2,           2940.,           196.6,           3000.,           196.4,           3060.,           196.7
          3120.,           197.2,           3180.,           197.3,           3240.,           196.9,           3300.,           196.9
          3360.,           197.4,           3420.,           196.8,           3480.,           197.3
*Amplitude, name=Hold3_LT
             0.,            31.7,             60.,            31.3,            120.,            31.2,            180.,            31.2
           240.,            29.8,            300.,            30.3,            360.,            29.8,            420.,            29.1
           480.,            28.4,            540.,            28.9,            600.,            28.1,            660.,            28.2
           720.,            27.8,            780.,            27.3,            840.,            27.2,            900.,            27.5
           960.,            27.1,           1020.,            26.7,           1080.,            26.9,           1140.,            26.7
          1200.,            26.4,           1260.,            26.8,           1320.,            26.6,           1380.,            26.2
          1440.,            26.1,           1500.,            26.5,           1560.,            26.4,           1620.,            26.2
          1680.,             26.,           1740.,            25.7,           1800.,            25.9,           1860.,            25.7
          1920.,            25.7,           1980.,            25.8,           2040.,            25.6,           2100.,            25.6
          2160.,            25.7,           2220.,            25.5,           2280.,            25.6,           2340.,            25.8
          2400.,            25.7,           2460.,            25.6,           2520.,            25.5,           2580.,            25.4
          2640.,            25.7
** 
** MATERIALS
** 
*Material, name=Vitrimer
*Depvar
    157,
*User Material, constants=19
1000.,     13.1868,     1157.36,     12.4347,       1200.,     212490., 1.29361e+06,   0.0002486
        900.,          4.,      0.0001,         50.,        205.,    1.75e-05,      0.0077,    -3.51712
     52.4274,         10.,         20.
** 
** BOUNDARY CONDITIONS
** 
** Name: BC-2 Type: Displacement/Rotation
*Boundary
Set-17, 3, 3
** Name: BC-3 Type: Displacement/Rotation
*Boundary
Set-18, 3, 3
** Name: BC-4 Type: Symmetry/Antisymmetry/Encastre
*Boundary
Set-13, XSYMM
** Name: BC-5 Type: Symmetry/Antisymmetry/Encastre
*Boundary
Set-16, YSYMM
** Name: BC-6 Type: Displacement/Rotation
*Boundary
Set-15, 1, 1
Set-15, 2, 2
Set-15, 3, 3
Set-15, 4, 4
Set-15, 5, 5
Set-15, 6, 6
** 
** PREDEFINED FIELDS
** 
** Name: Initial Temp   Type: Temperature
*Initial Conditions, type=TEMPERATURE
Set-5, 163.1
** ----------------------------------------------------------------
** 
** STEP: Curing
** 
*Step, name=Curing, nlgeom=YES, inc=90000
*Static
100., 86400., 0.0001, 100.
** 
** PREDEFINED FIELDS
** 
** Name: Curing   Type: Temperature
*Temperature, amplitude=Curing
Set-5, 1.
** 
** OUTPUT REQUESTS
** 
*Restart, write, frequency=0
** 
** FIELD OUTPUT: F-Output-1
** 
*Output, field
*Node Output
CF, NT, RF, U
*Element Output, directions=YES
LE, MISES, PE, PEEQ, PEMAG, S, SDV, TEMP
*Contact Output
CDISP, CSTRESS
** 
** HISTORY OUTPUT: H-Output-1
** 
*Output, history, variable=PRESELECT
*End Step
** ----------------------------------------------------------------
** 
** STEP: Cooling1
** 
*Step, name=Cooling1, nlgeom=YES, inc=90000
*Static
5., 2820., 0.0282, 5.
** 
** PREDEFINED FIELDS
** 
** Name: Cooling1   Type: Temperature
*Temperature, amplitude=Cooling1
Set-5, 1.
** 
** OUTPUT REQUESTS
** 
*Restart, write, frequency=0
** 
** FIELD OUTPUT: F-Output-1
** 
*Output, field
*Node Output
CF, NT, RF, U
*Element Output, directions=YES
LE, MISES, PE, PEEQ, PEMAG, S, SDV, TEMP
*Contact Output
CDISP, CSTRESS
** 
** HISTORY OUTPUT: H-Output-1
** 
*Output, history, variable=PRESELECT
*End Step
** ----------------------------------------------------------------
** 
** STEP: Hold1_LT
** 
*Step, name=Hold1_LT, nlgeom=YES, inc=90000
*Static
5., 2700., 0.001, 5.
** 
** PREDEFINED FIELDS
** 
** Name: Hold1   Type: Temperature
*Temperature, amplitude=Hold1_LT
Set-5, 1.
** 
** OUTPUT REQUESTS
** 
*Restart, write, frequency=0
** 
** FIELD OUTPUT: F-Output-1
** 
*Output, field
*Node Output
CF, NT, RF, U
*Element Output, directions=YES
LE, MISES, PE, PEEQ, PEMAG, S, SDV, TEMP
*Contact Output
CDISP, CSTRESS
** 
** HISTORY OUTPUT: H-Output-1
** 
*Output, history, variable=PRESELECT
*End Step
** ----------------------------------------------------------------
** 
** STEP: Heating
** 
*Step, name=Heating, nlgeom=YES, inc=90000
*Static
5., 2400., 0.001, 5.
** 
** PREDEFINED FIELDS
** 
** Name: Heating   Type: Temperature
*Temperature, amplitude=Heating
Set-5, 1.
** 
** OUTPUT REQUESTS
** 
*Restart, write, frequency=0
** 
** FIELD OUTPUT: F-Output-1
** 
*Output, field
*Node Output
CF, NT, RF, U
*Element Output, directions=YES
LE, MISES, PE, PEEQ, PEMAG, S, SDV, TEMP
*Contact Output
CDISP, CSTRESS
** 
** HISTORY OUTPUT: H-Output-1
** 
*Output, history, variable=PRESELECT
*End Step
** ----------------------------------------------------------------
** 
** STEP: Hold2_HT
** 
*Step, name=Hold2_HT, nlgeom=YES, inc=90000
*Static
2., 3480., 0.001, 2.
** 
** PREDEFINED FIELDS
** 
** Name: Hold2   Type: Temperature
*Temperature, amplitude=Hold2_HT
Set-5, 1.
** 
** OUTPUT REQUESTS
** 
*Restart, write, frequency=0
** 
** FIELD OUTPUT: F-Output-1
** 
*Output, field
*Node Output
CF, NT, RF, U
*Element Output, directions=YES
LE, MISES, PE, PEEQ, PEMAG, S, SDV, TEMP
*Contact Output
CDISP, CSTRESS
** 
** HISTORY OUTPUT: H-Output-1
** 
*Output, history, variable=PRESELECT
*End Step
** ----------------------------------------------------------------
** 
** STEP: Cooling2
** 
*Step, name=Cooling2, nlgeom=YES, inc=90000
*Static
5., 4020., 0.0001, 5.
** 
** PREDEFINED FIELDS
** 
** Name: Cooling2   Type: Temperature
*Temperature, amplitude=Cooling2
Set-5, 1.
** 
** OUTPUT REQUESTS
** 
*Restart, write, frequency=0
** 
** FIELD OUTPUT: F-Output-1
** 
*Output, field
*Node Output
CF, NT, RF, U
*Element Output, directions=YES
LE, MISES, PE, PEEQ, PEMAG, S, SDV, TEMP
*Contact Output
CDISP, CSTRESS
** 
** HISTORY OUTPUT: H-Output-1
** 
*Output, history, variable=PRESELECT
*End Step
** ----------------------------------------------------------------
** 
** STEP: Hold3_LT
** 
*Step, name=Hold3_LT, nlgeom=YES, inc=90000
*Static
5., 2460., 0.001, 5.
** 
** PREDEFINED FIELDS
** 
** Name: Hold3   Type: Temperature
*Temperature, amplitude=Hold3_LT
Set-5, 1.
** 
** OUTPUT REQUESTS
** 
*Restart, write, frequency=0
** 
** FIELD OUTPUT: F-Output-1
** 
*Output, field
*Node Output
NT, U
*Element Output, directions=YES
E, LE, MISES, MISESMAX, S, SDV, TEMP
** 
** HISTORY OUTPUT: H-Output-1
** 
*Output, history, variable=PRESELECT
*End Step
