** This is a comment line 
** This input file is used to simulate the TMA experiment for 0% catalyst vitrimer. 
** The 5% catalyst simulation is similar, requiring only parameter adjustments. 
*Heading
** Job name: Purevitrimer-0pcnt-FixZ-1113-TMA Model name: Purevitrimer-0pcnt-FixZ-1113-TMA
** Generated by: Abaqus/CAE 2019
*Preprint, echo=NO, model=NO, history=NO, contact=NO
**
** PARTS
**
*Part, name=Vitrimer
*Node
      1,           1.,           1.,           1.
      2,           1.,  0.666666687,           1.
      3,           1.,  0.333333343,           1.
      4,           1.,           0.,           1.
      5,           1.,           1.,  0.666666687
      6,           1.,  0.666666687,  0.666666687
      7,           1.,  0.333333343,  0.666666687
      8,           1.,           0.,  0.666666687
      9,           1.,           1.,  0.333333343
     10,           1.,  0.666666687,  0.333333343
     11,           1.,  0.333333343,  0.333333343
     12,           1.,           0.,  0.333333343
     13,           1.,           1.,           0.
     14,           1.,  0.666666687,           0.
     15,           1.,  0.333333343,           0.
     16,           1.,           0.,           0.
     17,  0.666666687,           1.,           1.
     18,  0.666666687,  0.666666687,           1.
     19,  0.666666687,  0.333333343,           1.
     20,  0.666666687,           0.,           1.
     21,  0.666666687,           1.,  0.666666687
     22,  0.666666687,  0.666666687,  0.666666687
     23,  0.666666687,  0.333333343,  0.666666687
     24,  0.666666687,           0.,  0.666666687
     25,  0.666666687,           1.,  0.333333343
     26,  0.666666687,  0.666666687,  0.333333343
     27,  0.666666687,  0.333333343,  0.333333343
     28,  0.666666687,           0.,  0.333333343
     29,  0.666666687,           1.,           0.
     30,  0.666666687,  0.666666687,           0.
     31,  0.666666687,  0.333333343,           0.
     32,  0.666666687,           0.,           0.
     33,  0.333333343,           1.,           1.
     34,  0.333333343,  0.666666687,           1.
     35,  0.333333343,  0.333333343,           1.
     36,  0.333333343,           0.,           1.
     37,  0.333333343,           1.,  0.666666687
     38,  0.333333343,  0.666666687,  0.666666687
     39,  0.333333343,  0.333333343,  0.666666687
     40,  0.333333343,           0.,  0.666666687
     41,  0.333333343,           1.,  0.333333343
     42,  0.333333343,  0.666666687,  0.333333343
     43,  0.333333343,  0.333333343,  0.333333343
     44,  0.333333343,           0.,  0.333333343
     45,  0.333333343,           1.,           0.
     46,  0.333333343,  0.666666687,           0.
     47,  0.333333343,  0.333333343,           0.
     48,  0.333333343,           0.,           0.
     49,           0.,           1.,           1.
     50,           0.,  0.666666687,           1.
     51,           0.,  0.333333343,           1.
     52,           0.,           0.,           1.
     53,           0.,           1.,  0.666666687
     54,           0.,  0.666666687,  0.666666687
     55,           0.,  0.333333343,  0.666666687
     56,           0.,           0.,  0.666666687
     57,           0.,           1.,  0.333333343
     58,           0.,  0.666666687,  0.333333343
     59,           0.,  0.333333343,  0.333333343
     60,           0.,           0.,  0.333333343
     61,           0.,           1.,           0.
     62,           0.,  0.666666687,           0.
     63,           0.,  0.333333343,           0.
     64,           0.,           0.,           0.
*Element, type=C3D8
 1, 17, 18, 22, 21,  1,  2,  6,  5
 2, 18, 19, 23, 22,  2,  3,  7,  6
 3, 19, 20, 24, 23,  3,  4,  8,  7
 4, 21, 22, 26, 25,  5,  6, 10,  9
 5, 22, 23, 27, 26,  6,  7, 11, 10
 6, 23, 24, 28, 27,  7,  8, 12, 11
 7, 25, 26, 30, 29,  9, 10, 14, 13
 8, 26, 27, 31, 30, 10, 11, 15, 14
 9, 27, 28, 32, 31, 11, 12, 16, 15
10, 33, 34, 38, 37, 17, 18, 22, 21
11, 34, 35, 39, 38, 18, 19, 23, 22
12, 35, 36, 40, 39, 19, 20, 24, 23
13, 37, 38, 42, 41, 21, 22, 26, 25
14, 38, 39, 43, 42, 22, 23, 27, 26
15, 39, 40, 44, 43, 23, 24, 28, 27
16, 41, 42, 46, 45, 25, 26, 30, 29
17, 42, 43, 47, 46, 26, 27, 31, 30
18, 43, 44, 48, 47, 27, 28, 32, 31
19, 49, 50, 54, 53, 33, 34, 38, 37
20, 50, 51, 55, 54, 34, 35, 39, 38
21, 51, 52, 56, 55, 35, 36, 40, 39
22, 53, 54, 58, 57, 37, 38, 42, 41
23, 54, 55, 59, 58, 38, 39, 43, 42
24, 55, 56, 60, 59, 39, 40, 44, 43
25, 57, 58, 62, 61, 41, 42, 46, 45
26, 58, 59, 63, 62, 42, 43, 47, 46
27, 59, 60, 64, 63, 43, 44, 48, 47
*Nset, nset=Set-1, generate
  1,  64,   1
*Elset, elset=Set-1, generate
  1,  27,   1
** Section: Matrix
*Solid Section, elset=Set-1, material=Vitrimer
,
*End Part
**  
**
** ASSEMBLY
**
*Assembly, name=Assembly
**  
*Instance, name=Vitrimer-1, part=Vitrimer
*End Instance
**  
*Nset, nset=Set-1, instance=Vitrimer-1, generate
  1,  16,   1
*Elset, elset=Set-1, instance=Vitrimer-1, generate
 1,  9,  1
*Nset, nset=Set-2, instance=Vitrimer-1, generate
  1,  61,   4
*Elset, elset=Set-2, instance=Vitrimer-1, generate
  1,  25,   3
*Nset, nset=Set-3, instance=Vitrimer-1
 13, 14, 15, 16, 29, 30, 31, 32, 45, 46, 47, 48, 61, 62, 63, 64
*Elset, elset=Set-3, instance=Vitrimer-1
  7,  8,  9, 16, 17, 18, 25, 26, 27
*Nset, nset=Set-4, instance=Vitrimer-1
 52,
*Nset, nset=Set-5, instance=Vitrimer-1, generate
  1,  64,   1
*Elset, elset=Set-5, instance=Vitrimer-1, generate
  1,  27,   1
*Nset, nset=Set-6, instance=Vitrimer-1, generate
  1,  61,   4
*Elset, elset=Set-6, instance=Vitrimer-1, generate
  1,  25,   3
*Nset, nset=Set-7, instance=Vitrimer-1, generate
  4,  64,   4
*Elset, elset=Set-7, instance=Vitrimer-1, generate
  3,  27,   3
*Nset, nset=Set-8, instance=Vitrimer-1, generate
  4,  52,  16
*Elset, elset=Set-8, instance=Vitrimer-1, generate
  3,  21,   9
*Nset, nset=Set-9, instance=Vitrimer-1, generate
 52,  64,   4
*Elset, elset=Set-9, instance=Vitrimer-1, generate
 21,  27,   3
*Nset, nset=Set-10, instance=Vitrimer-1
 52,
*Nset, nset=Set-11, instance=Vitrimer-1, generate
 49,  52,   1
*Elset, elset=Set-11, instance=Vitrimer-1, generate
 19,  21,   1
*Nset, nset=Set-12, instance=Vitrimer-1
 64,
*Nset, nset=Set-13, instance=Vitrimer-1, generate
 49,  64,   1
*Elset, elset=Set-13, instance=Vitrimer-1, generate
 19,  27,   1
*Nset, nset=Set-14, instance=Vitrimer-1
  1,  2,  3,  4, 17, 18, 19, 20, 33, 34, 35, 36, 49, 50, 51, 52
*Elset, elset=Set-14, instance=Vitrimer-1
  1,  2,  3, 10, 11, 12, 19, 20, 21
*Nset, nset=Set-15, instance=Vitrimer-1
 52,
*Nset, nset=Set-16, instance=Vitrimer-1, generate
  1,  61,   4
*Elset, elset=Set-16, instance=Vitrimer-1, generate
  1,  25,   3
*Nset, nset=Set-17, instance=Vitrimer-1
  1,  2,  3,  4, 17, 18, 19, 20, 33, 34, 35, 36, 49, 50, 51, 52
*Elset, elset=Set-17, instance=Vitrimer-1
  1,  2,  3, 10, 11, 12, 19, 20, 21
*Nset, nset=Set-18, instance=Vitrimer-1
 13, 14, 15, 16, 29, 30, 31, 32, 45, 46, 47, 48, 61, 62, 63, 64
*Elset, elset=Set-18, instance=Vitrimer-1
  7,  8,  9, 16, 17, 18, 25, 26, 27
*Nset, nset=Set-19, instance=Vitrimer-1, generate
  1,  64,   1
*Elset, elset=Set-19, instance=Vitrimer-1, generate
  1,  27,   1
*End Assembly
*Amplitude, name=Cooling1
             0.,           163.1,             60.,           161.4,            120.,           158.9,            180.,           155.8
           240.,           153.5,            300.,           150.6,            360.,            148.,            420.,           145.2
           480.,            142.,            540.,           138.7,            600.,           135.4,            660.,           131.9
           720.,           128.7,            780.,           125.2,            840.,           121.7,            900.,            119.
           960.,           115.9,           1020.,           112.6,           1080.,            110.,           1140.,           107.4
          1200.,           104.3,           1260.,           101.3,           1320.,            97.8,           1380.,            95.3
          1440.,            92.4,           1500.,            89.6,           1560.,            86.6,           1620.,            84.2
          1680.,            81.7,           1740.,            78.9,           1800.,            76.2,           1860.,            73.5
          1920.,            71.4,           1980.,            68.8,           2040.,            65.9,           2100.,            64.1
          2160.,            61.5,           2220.,            58.7,           2280.,             56.,           2340.,             54.
          2400.,            51.4,           2460.,             49.,           2520.,            46.1,           2580.,            43.7
          2640.,            40.8,           2700.,            38.2,           2760.,            35.3,           2820.,            32.5
*Amplitude, name=Cooling2
             0.,           197.3,             60.,           196.6,            120.,           194.9,            180.,            192.
           240.,           188.4,            300.,           185.4,            360.,           182.3,            420.,            179.
           480.,            176.,            540.,           172.9,            600.,           169.7,            660.,           166.7
           720.,           163.7,            780.,           160.4,            840.,           157.2,            900.,           154.4
           960.,           151.1,           1020.,           147.9,           1080.,           145.2,           1140.,           142.2
          1200.,           139.3,           1260.,           136.4,           1320.,           133.5,           1380.,           130.6
          1440.,           128.1,           1500.,           125.5,           1560.,           122.7,           1620.,           120.5
          1680.,            118.,           1740.,           115.8,           1800.,           113.6,           1860.,           110.8
          1920.,            109.,           1980.,           106.6,           2040.,           104.2,           2100.,           102.2
          2160.,            99.5,           2220.,            97.8,           2280.,            95.9,           2340.,            93.8
          2400.,             92.,           2460.,            89.9,           2520.,            87.9,           2580.,            86.1
          2640.,            84.1,           2700.,            82.3,           2760.,            80.6,           2820.,            78.9
          2880.,            76.9,           2940.,            75.3,           3000.,            73.8,           3060.,             72.
          3120.,            70.4,           3180.,            68.8,           3240.,            67.3,           3300.,            65.5
          3360.,            64.1,           3420.,             62.,           3480.,            59.3,           3540.,            56.3
          3600.,            53.2,           3660.,            49.8,           3720.,            46.2,           3780.,            42.9
          3840.,            39.4,           3900.,            35.7,           3960.,            33.7,           4020.,            31.7
*Amplitude, name=Curing
             0.,           163.1,             60.,           163.1,            120.,           163.1,            180.,           163.1
           240.,           163.1,            300.,           163.1,            360.,           163.1,            420.,           163.1
           480.,           163.1,            540.,           163.1,            600.,           163.1,            660.,           163.1
           720.,           163.1,            780.,           163.1,            840.,           163.1,            900.,           163.1
           960.,           163.1,           1020.,           163.1,           1080.,           163.1,           1140.,           163.1
          1200.,           163.1,           1260.,           163.1,           1320.,           163.1,           1380.,           163.1
          1440.,           163.1,           1500.,           163.1,           1560.,           163.1,           1620.,           163.1
          1680.,           163.1,           1740.,           163.1,           1800.,           163.1,           1860.,           163.1
          1920.,           163.1,           1980.,           163.1,           2040.,           163.1,           2100.,           163.1
          2160.,           163.1,           2220.,           163.1,           2280.,           163.1,           2340.,           163.1
          2400.,           163.1,           2460.,           163.1,           2520.,           163.1,           2580.,           163.1
          2640.,           163.1,           2700.,           163.1,           2760.,           163.1,           2820.,           163.1
          2880.,           163.1,           2940.,           163.1,           3000.,           163.1,           3060.,           163.1
          3120.,           163.1,           3180.,           163.1,           3240.,           163.1,           3300.,           163.1
          3360.,           163.1,           3420.,           163.1,           3480.,           163.1,           3540.,           163.1
          3600.,           163.1,           3660.,           163.1,           3720.,           163.1,           3780.,           163.1
          3840.,           163.1,           3900.,           163.1,           3960.,           163.1,           4020.,           163.1
          4080.,           163.1,           4140.,           163.1,           4200.,           163.1,           4260.,           163.1
          4320.,           163.1,           4380.,           163.1,           4440.,           163.1,           4500.,           163.1
          4560.,           163.1,           4620.,           163.1,           4680.,           163.1,           4740.,           163.1
          4800.,           163.1,           4860.,           163.1,           4920.,           163.1,           4980.,           163.1
          5040.,           163.1,           5100.,           163.1,           5160.,           163.1,           5220.,           163.1
          5280.,           163.1,           5340.,           163.1,           5400.,           163.1,           5460.,           163.1
          5520.,           163.1,           5580.,           163.1,           5640.,           163.1,           5700.,           163.1
          5760.,           163.1,           5820.,           163.1,           5880.,           163.1,           5940.,           163.1
          6000.,           163.1,           6060.,           163.1,           6120.,           163.1,           6180.,           163.1
          6240.,           163.1,           6300.,           163.1,           6360.,           163.1,           6420.,           163.1
          6480.,           163.1,           6540.,           163.1,           6600.,           163.1,           6660.,           163.1
          6720.,           163.1,           6780.,           163.1,           6840.,           163.1,           6900.,           163.1
          6960.,           163.1,           7020.,           163.1,           7080.,           163.1,           7140.,           163.1
          7200.,           163.1,           7260.,           163.1,           7320.,           163.1,           7380.,           163.1
          7440.,           163.1,           7500.,           163.1,           7560.,           163.1,           7620.,           163.1
          7680.,           163.1,           7740.,           163.1,           7800.,           163.1,           7860.,           163.1
          7920.,           163.1,           7980.,           163.1,           8040.,           163.1,           8100.,           163.1
          8160.,           163.1,           8220.,           163.1,           8280.,           163.1,           8340.,           163.1
          8400.,           163.1,           8460.,           163.1,           8520.,           163.1,           8580.,           163.1
          8640.,           163.1,           8700.,           163.1,           8760.,           163.1,           8820.,           163.1
          8880.,           163.1,           8940.,           163.1,           9000.,           163.1,           9060.,           163.1
          9120.,           163.1,           9180.,           163.1,           9240.,           163.1,           9300.,           163.1
          9360.,           163.1,           9420.,           163.1,           9480.,           163.1,           9540.,           163.1
          9600.,           163.1,           9660.,           163.1,           9720.,           163.1,           9780.,           163.1
          9840.,           163.1,           9900.,           163.1,           9960.,           163.1,          10020.,           163.1
         10080.,           163.1,          10140.,           163.1,          10200.,           163.1,          10260.,           163.1
         10320.,           163.1,          10380.,           163.1,          10440.,           163.1,          10500.,           163.1
         10560.,           163.1,          10620.,           163.1,          10680.,           163.1,          10740.,           163.1
         10800.,           163.1,          10860.,           163.1,          10920.,           163.1,          10980.,           163.1
         11040.,           163.1,          11100.,           163.1,          11160.,           163.1,          11220.,           163.1
         11280.,           163.1,          11340.,           163.1,          11400.,           163.1,          11460.,           163.1
         11520.,           163.1,          11580.,           163.1,          11640.,           163.1,          11700.,           163.1
         11760.,           163.1,          11820.,           163.1,          11880.,           163.1,          11940.,           163.1
         12000.,           163.1,          12060.,           163.1,          12120.,           163.1,          12180.,           163.1
         12240.,           163.1,          12300.,           163.1,          12360.,           163.1,          12420.,           163.1
         12480.,           163.1,          12540.,           163.1,          12600.,           163.1,          12660.,           163.1
         12720.,           163.1,          12780.,           163.1,          12840.,           163.1,          12900.,           163.1
         12960.,           163.1,          13020.,           163.1,          13080.,           163.1,          13140.,           163.1
         13200.,           163.1,          13260.,           163.1,          13320.,           163.1,          13380.,           163.1
         13440.,           163.1,          13500.,           163.1,          13560.,           163.1,          13620.,           163.1
         13680.,           163.1,          13740.,           163.1,          13800.,           163.1,          13860.,           163.1
         13920.,           163.1,          13980.,           163.1,          14040.,           163.1,          14100.,           163.1
         14160.,           163.1,          14220.,           163.1,          14280.,           163.1,          14340.,           163.1
         14400.,           163.1,          14460.,           163.1,          14520.,           163.1,          14580.,           163.1
         14640.,           163.1,          14700.,           163.1,          14760.,           163.1,          14820.,           163.1
         14880.,           163.1,          14940.,           163.1,          15000.,           163.1,          15060.,           163.1
         15120.,           163.1,          15180.,           163.1,          15240.,           163.1,          15300.,           163.1
         15360.,           163.1,          15420.,           163.1,          15480.,           163.1,          15540.,           163.1
         15600.,           163.1,          15660.,           163.1,          15720.,           163.1,          15780.,           163.1
         15840.,           163.1,          15900.,           163.1,          15960.,           163.1,          16020.,           163.1
         16080.,           163.1,          16140.,           163.1,          16200.,           163.1,          16260.,           163.1
         16320.,           163.1,          16380.,           163.1,          16440.,           163.1,          16500.,           163.1
         16560.,           163.1,          16620.,           163.1,          16680.,           163.1,          16740.,           163.1
         16800.,           163.1,          16860.,           163.1,          16920.,           163.1,          16980.,           163.1
         17040.,           163.1,          17100.,           163.1,          17160.,           163.1,          17220.,           163.1
         17280.,           163.1,          17340.,           163.1,          17400.,           163.1,          17460.,           163.1
         17520.,           163.1,          17580.,           163.1,          17640.,           163.1,          17700.,           163.1
         17760.,           163.1,          17820.,           163.1,          17880.,           163.1,          17940.,           163.1
         18000.,           163.1,          18060.,           163.1,          18120.,           163.1,          18180.,           163.1
         18240.,           163.1,          18300.,           163.1,          18360.,           163.1,          18420.,           163.1
         18480.,           163.1,          18540.,           163.1,          18600.,           163.1,          18660.,           163.1
         18720.,           163.1,          18780.,           163.1,          18840.,           163.1,          18900.,           163.1
         18960.,           163.1,          19020.,           163.1,          19080.,           163.1,          19140.,           163.1
         19200.,           163.1,          19260.,           163.1,          19320.,           163.1,          19380.,           163.1
         19440.,           163.1,          19500.,           163.1,          19560.,           163.1,          19620.,           163.1
         19680.,           163.1,          19740.,           163.1,          19800.,           163.1,          19860.,           163.1
         19920.,           163.1,          19980.,           163.1,          20040.,           163.1,          20100.,           163.1
         20160.,           163.1,          20220.,           163.1,          20280.,           163.1,          20340.,           163.1
         20400.,           163.1,          20460.,           163.1,          20520.,           163.1,          20580.,           163.1
         20640.,           163.1,          20700.,           163.1,          20760.,           163.1,          20820.,           163.1
         20880.,           163.1,          20940.,           163.1,          21000.,           163.1,          21060.,           163.1
         21120.,           163.1,          21180.,           163.1,          21240.,           163.1,          21300.,           163.1
         21360.,           163.1,          21420.,           163.1,          21480.,           163.1,          21540.,           163.1
         21600.,           163.1,          21660.,           163.1,          21720.,           163.1,          21780.,           163.1
         21840.,           163.1,          21900.,           163.1,          21960.,           163.1,          22020.,           163.1
         22080.,           163.1,          22140.,           163.1,          22200.,           163.1,          22260.,           163.1
         22320.,           163.1,          22380.,           163.1,          22440.,           163.1,          22500.,           163.1
         22560.,           163.1,          22620.,           163.1,          22680.,           163.1,          22740.,           163.1
         22800.,           163.1,          22860.,           163.1,          22920.,           163.1,          22980.,           163.1
         23040.,           163.1,          23100.,           163.1,          23160.,           163.1,          23220.,           163.1
         23280.,           163.1,          23340.,           163.1,          23400.,           163.1,          23460.,           163.1
         23520.,           163.1,          23580.,           163.1,          23640.,           163.1,          23700.,           163.1
         23760.,           163.1,          23820.,           163.1,          23880.,           163.1,          23940.,           163.1
         24000.,           163.1,          24060.,           163.1,          24120.,           163.1,          24180.,           163.1
         24240.,           163.1,          24300.,           163.1,          24360.,           163.1,          24420.,           163.1
         24480.,           163.1,          24540.,           163.1,          24600.,           163.1,          24660.,           163.1
         24720.,           163.1,          24780.,           163.1,          24840.,           163.1,          24900.,           163.1
         24960.,           163.1,          25020.,           163.1,          25080.,           163.1,          25140.,           163.1
         25200.,           163.1,          25260.,           163.1,          25320.,           163.1,          25380.,           163.1
         25440.,           163.1,          25500.,           163.1,          25560.,           163.1,          25620.,           163.1
         25680.,           163.1,          25740.,           163.1,          25800.,           163.1,          25860.,           163.1
         25920.,           163.1,          25980.,           163.1,          26040.,           163.1,          26100.,           163.1
         26160.,           163.1,          26220.,           163.1,          26280.,           163.1,          26340.,           163.1
         26400.,           163.1,          26460.,           163.1,          26520.,           163.1,          26580.,           163.1
         26640.,           163.1,          26700.,           163.1,          26760.,           163.1,          26820.,           163.1
         26880.,           163.1,          26940.,           163.1,          27000.,           163.1,          27060.,           163.1
         27120.,           163.1,          27180.,           163.1,          27240.,           163.1,          27300.,           163.1
         27360.,           163.1,          27420.,           163.1,          27480.,           163.1,          27540.,           163.1
         27600.,           163.1,          27660.,           163.1,          27720.,           163.1,          27780.,           163.1
         27840.,           163.1,          27900.,           163.1,          27960.,           163.1,          28020.,           163.1
         28080.,           163.1,          28140.,           163.1,          28200.,           163.1,          28260.,           163.1
         28320.,           163.1,          28380.,           163.1,          28440.,           163.1,          28500.,           163.1
         28560.,           163.1,          28620.,           163.1,          28680.,           163.1,          28740.,           163.1
         28800.,           163.1,          28860.,           163.1,          28920.,           163.1,          28980.,           163.1
         29040.,           163.1,          29100.,           163.1,          29160.,           163.1,          29220.,           163.1
         29280.,           163.1,          29340.,           163.1,          29400.,           163.1,          29460.,           163.1
         29520.,           163.1,          29580.,           163.1,          29640.,           163.1,          29700.,           163.1
         29760.,           163.1,          29820.,           163.1,          29880.,           163.1,          29940.,           163.1
         30000.,           163.1,          30060.,           163.1,          30120.,           163.1,          30180.,           163.1
         30240.,           163.1,          30300.,           163.1,          30360.,           163.1,          30420.,           163.1
         30480.,           163.1,          30540.,           163.1,          30600.,           163.1,          30660.,           163.1
         30720.,           163.1,          30780.,           163.1,          30840.,           163.1,          30900.,           163.1
         30960.,           163.1,          31020.,           163.1,          31080.,           163.1,          31140.,           163.1
         31200.,           163.1,          31260.,           163.1,          31320.,           163.1,          31380.,           163.1
         31440.,           163.1,          31500.,           163.1,          31560.,           163.1,          31620.,           163.1
         31680.,           163.1,          31740.,           163.1,          31800.,           163.1,          31860.,           163.1
         31920.,           163.1,          31980.,           163.1,          32040.,           163.1,          32100.,           163.1
         32160.,           163.1,          32220.,           163.1,          32280.,           163.1,          32340.,           163.1
         32400.,           163.1,          32460.,           163.1,          32520.,           163.1,          32580.,           163.1
         32640.,           163.1,          32700.,           163.1,          32760.,           163.1,          32820.,           163.1
         32880.,           163.1,          32940.,           163.1,          33000.,           163.1,          33060.,           163.1
         33120.,           163.1,          33180.,           163.1,          33240.,           163.1,          33300.,           163.1
         33360.,           163.1,          33420.,           163.1,          33480.,           163.1,          33540.,           163.1
         33600.,           163.1,          33660.,           163.1,          33720.,           163.1,          33780.,           163.1
         33840.,           163.1,          33900.,           163.1,          33960.,           163.1,          34020.,           163.1
         34080.,           163.1,          34140.,           163.1,          34200.,           163.1,          34260.,           163.1
         34320.,           163.1,          34380.,           163.1,          34440.,           163.1,          34500.,           163.1
         34560.,           163.1,          34620.,           163.1,          34680.,           163.1,          34740.,           163.1
         34800.,           163.1,          34860.,           163.1,          34920.,           163.1,          34980.,           163.1
         35040.,           163.1,          35100.,           163.1,          35160.,           163.1,          35220.,           163.1
         35280.,           163.1,          35340.,           163.1,          35400.,           163.1,          35460.,           163.1
         35520.,           163.1,          35580.,           163.1,          35640.,           163.1,          35700.,           163.1
         35760.,           163.1,          35820.,           163.1,          35880.,           163.1,          35940.,           163.1
         36000.,           163.1,          36060.,           163.1,          36120.,           163.1,          36180.,           163.1
         36240.,           163.1,          36300.,           163.1,          36360.,           163.1,          36420.,           163.1
         36480.,           163.1,          36540.,           163.1,          36600.,           163.1,          36660.,           163.1
         36720.,           163.1,          36780.,           163.1,          36840.,           163.1,          36900.,           163.1
         36960.,           163.1,          37020.,           163.1,          37080.,           163.1,          37140.,           163.1
         37200.,           163.1,          37260.,           163.1,          37320.,           163.1,          37380.,           163.1
         37440.,           163.1,          37500.,           163.1,          37560.,           163.1,          37620.,           163.1
         37680.,           163.1,          37740.,           163.1,          37800.,           163.1,          37860.,           163.1
         37920.,           163.1,          37980.,           163.1,          38040.,           163.1,          38100.,           163.1
         38160.,           163.1,          38220.,           163.1,          38280.,           163.1,          38340.,           163.1
         38400.,           163.1,          38460.,           163.1,          38520.,           163.1,          38580.,           163.1
         38640.,           163.1,          38700.,           163.1,          38760.,           163.1,          38820.,           163.1
         38880.,           163.1,          38940.,           163.1,          39000.,           163.1,          39060.,           163.1
         39120.,           163.1,          39180.,           163.1,          39240.,           163.1,          39300.,           163.1
         39360.,           163.1,          39420.,           163.1,          39480.,           163.1,          39540.,           163.1
         39600.,           163.1,          39660.,           163.1,          39720.,           163.1,          39780.,           163.1
         39840.,           163.1,          39900.,           163.1,          39960.,           163.1,          40020.,           163.1
         40080.,           163.1,          40140.,           163.1,          40200.,           163.1,          40260.,           163.1
         40320.,           163.1,          40380.,           163.1,          40440.,           163.1,          40500.,           163.1
         40560.,           163.1,          40620.,           163.1,          40680.,           163.1,          40740.,           163.1
         40800.,           163.1,          40860.,           163.1,          40920.,           163.1,          40980.,           163.1
         41040.,           163.1,          41100.,           163.1,          41160.,           163.1,          41220.,           163.1
         41280.,           163.1,          41340.,           163.1,          41400.,           163.1,          41460.,           163.1
         41520.,           163.1,          41580.,           163.1,          41640.,           163.1,          41700.,           163.1
         41760.,           163.1,          41820.,           163.1,          41880.,           163.1,          41940.,           163.1
         42000.,           163.1,          42060.,           163.1,          42120.,           163.1,          42180.,           163.1
         42240.,           163.1,          42300.,           163.1,          42360.,           163.1,          42420.,           163.1
         42480.,           163.1,          42540.,           163.1,          42600.,           163.1,          42660.,           163.1
         42720.,           163.1,          42780.,           163.1,          42840.,           163.1,          42900.,           163.1
         42960.,           163.1,          43020.,           163.1,          43080.,           163.1,          43140.,           163.1
         43200.,           163.1,          43260.,           163.1,          43320.,           163.1,          43380.,           163.1
         43440.,           163.1,          43500.,           163.1,          43560.,           163.1,          43620.,           163.1
         43680.,           163.1,          43740.,           163.1,          43800.,           163.1,          43860.,           163.1
         43920.,           163.1,          43980.,           163.1,          44040.,           163.1,          44100.,           163.1
         44160.,           163.1,          44220.,           163.1,          44280.,           163.1,          44340.,           163.1
         44400.,           163.1,          44460.,           163.1,          44520.,           163.1,          44580.,           163.1
         44640.,           163.1,          44700.,           163.1,          44760.,           163.1,          44820.,           163.1
         44880.,           163.1,          44940.,           163.1,          45000.,           163.1,          45060.,           163.1
         45120.,           163.1,          45180.,           163.1,          45240.,           163.1,          45300.,           163.1
         45360.,           163.1,          45420.,           163.1,          45480.,           163.1,          45540.,           163.1
         45600.,           163.1,          45660.,           163.1,          45720.,           163.1,          45780.,           163.1
         45840.,           163.1,          45900.,           163.1,          45960.,           163.1,          46020.,           163.1
         46080.,           163.1,          46140.,           163.1,          46200.,           163.1,          46260.,           163.1
         46320.,           163.1,          46380.,           163.1,          46440.,           163.1,          46500.,           163.1
         46560.,           163.1,          46620.,           163.1,          46680.,           163.1,          46740.,           163.1
         46800.,           163.1,          46860.,           163.1,          46920.,           163.1,          46980.,           163.1
         47040.,           163.1,          47100.,           163.1,          47160.,           163.1,          47220.,           163.1
         47280.,           163.1,          47340.,           163.1,          47400.,           163.1,          47460.,           163.1
         47520.,           163.1,          47580.,           163.1,          47640.,           163.1,          47700.,           163.1
         47760.,           163.1,          47820.,           163.1,          47880.,           163.1,          47940.,           163.1
         48000.,           163.1,          48060.,           163.1,          48120.,           163.1,          48180.,           163.1
         48240.,           163.1,          48300.,           163.1,          48360.,           163.1,          48420.,           163.1
         48480.,           163.1,          48540.,           163.1,          48600.,           163.1,          48660.,           163.1
         48720.,           163.1,          48780.,           163.1,          48840.,           163.1,          48900.,           163.1
         48960.,           163.1,          49020.,           163.1,          49080.,           163.1,          49140.,           163.1
         49200.,           163.1,          49260.,           163.1,          49320.,           163.1,          49380.,           163.1
         49440.,           163.1,          49500.,           163.1,          49560.,           163.1,          49620.,           163.1
         49680.,           163.1,          49740.,           163.1,          49800.,           163.1,          49860.,           163.1
         49920.,           163.1,          49980.,           163.1,          50040.,           163.1,          50100.,           163.1
         50160.,           163.1,          50220.,           163.1,          50280.,           163.1,          50340.,           163.1
         50400.,           163.1,          50460.,           163.1,          50520.,           163.1,          50580.,           163.1
         50640.,           163.1,          50700.,           163.1,          50760.,           163.1,          50820.,           163.1
         50880.,           163.1,          50940.,           163.1,          51000.,           163.1,          51060.,           163.1
         51120.,           163.1,          51180.,           163.1,          51240.,           163.1,          51300.,           163.1
         51360.,           163.1,          51420.,           163.1,          51480.,           163.1,          51540.,           163.1
         51600.,           163.1,          51660.,           163.1,          51720.,           163.1,          51780.,           163.1
         51840.,           163.1,          51900.,           163.1,          51960.,           163.1,          52020.,           163.1
         52080.,           163.1,          52140.,           163.1,          52200.,           163.1,          52260.,           163.1
         52320.,           163.1,          52380.,           163.1,          52440.,           163.1,          52500.,           163.1
         52560.,           163.1,          52620.,           163.1,          52680.,           163.1,          52740.,           163.1
         52800.,           163.1,          52860.,           163.1,          52920.,           163.1,          52980.,           163.1
         53040.,           163.1,          53100.,           163.1,          53160.,           163.1,          53220.,           163.1
         53280.,           163.1,          53340.,           163.1,          53400.,           163.1,          53460.,           163.1
         53520.,           163.1,          53580.,           163.1,          53640.,           163.1,          53700.,           163.1
         53760.,           163.1,          53820.,           163.1,          53880.,           163.1,          53940.,           163.1
         54000.,           163.1,          54060.,           163.1,          54120.,           163.1,          54180.,           163.1
         54240.,           163.1,          54300.,           163.1,          54360.,           163.1,          54420.,           163.1
         54480.,           163.1,          54540.,           163.1,          54600.,           163.1,          54660.,           163.1
         54720.,           163.1,          54780.,           163.1,          54840.,           163.1,          54900.,           163.1
         54960.,           163.1,          55020.,           163.1,          55080.,           163.1,          55140.,           163.1
         55200.,           163.1,          55260.,           163.1,          55320.,           163.1,          55380.,           163.1
         55440.,           163.1,          55500.,           163.1,          55560.,           163.1,          55620.,           163.1
         55680.,           163.1,          55740.,           163.1,          55800.,           163.1,          55860.,           163.1
         55920.,           163.1,          55980.,           163.1,          56040.,           163.1,          56100.,           163.1
         56160.,           163.1,          56220.,           163.1,          56280.,           163.1,          56340.,           163.1
         56400.,           163.1,          56460.,           163.1,          56520.,           163.1,          56580.,           163.1
         56640.,           163.1,          56700.,           163.1,          56760.,           163.1,          56820.,           163.1
         56880.,           163.1,          56940.,           163.1,          57000.,           163.1,          57060.,           163.1
         57120.,           163.1,          57180.,           163.1,          57240.,           163.1,          57300.,           163.1
         57360.,           163.1,          57420.,           163.1,          57480.,           163.1,          57540.,           163.1
         57600.,           163.1,          57660.,           163.1,          57720.,           163.1,          57780.,           163.1
         57840.,           163.1,          57900.,           163.1,          57960.,           163.1,          58020.,           163.1
         58080.,           163.1,          58140.,           163.1,          58200.,           163.1,          58260.,           163.1
         58320.,           163.1,          58380.,           163.1,          58440.,           163.1,          58500.,           163.1
         58560.,           163.1,          58620.,           163.1,          58680.,           163.1,          58740.,           163.1
         58800.,           163.1,          58860.,           163.1,          58920.,           163.1,          58980.,           163.1
         59040.,           163.1,          59100.,           163.1,          59160.,           163.1,          59220.,           163.1
         59280.,           163.1,          59340.,           163.1,          59400.,           163.1,          59460.,           163.1
         59520.,           163.1,          59580.,           163.1,          59640.,           163.1,          59700.,           163.1
         59760.,           163.1,          59820.,           163.1,          59880.,           163.1,          59940.,           163.1
         60000.,           163.1,          60060.,           163.1,          60120.,           163.1,          60180.,           163.1
         60240.,           163.1,          60300.,           163.1,          60360.,           163.1,          60420.,           163.1
         60480.,           163.1,          60540.,           163.1,          60600.,           163.1,          60660.,           163.1
         60720.,           163.1,          60780.,           163.1,          60840.,           163.1,          60900.,           163.1
         60960.,           163.1,          61020.,           163.1,          61080.,           163.1,          61140.,           163.1
         61200.,           163.1,          61260.,           163.1,          61320.,           163.1,          61380.,           163.1
         61440.,           163.1,          61500.,           163.1,          61560.,           163.1,          61620.,           163.1
         61680.,           163.1,          61740.,           163.1,          61800.,           163.1,          61860.,           163.1
         61920.,           163.1,          61980.,           163.1,          62040.,           163.1,          62100.,           163.1
         62160.,           163.1,          62220.,           163.1,          62280.,           163.1,          62340.,           163.1
         62400.,           163.1,          62460.,           163.1,          62520.,           163.1,          62580.,           163.1
         62640.,           163.1,          62700.,           163.1,          62760.,           163.1,          62820.,           163.1
         62880.,           163.1,          62940.,           163.1,          63000.,           163.1,          63060.,           163.1
         63120.,           163.1,          63180.,           163.1,          63240.,           163.1,          63300.,           163.1
         63360.,           163.1,          63420.,           163.1,          63480.,           163.1,          63540.,           163.1
         63600.,           163.1,          63660.,           163.1,          63720.,           163.1,          63780.,           163.1
         63840.,           163.1,          63900.,           163.1,          63960.,           163.1,          64020.,           163.1
         64080.,           163.1,          64140.,           163.1,          64200.,           163.1,          64260.,           163.1
         64320.,           163.1,          64380.,           163.1,          64440.,           163.1,          64500.,           163.1
         64560.,           163.1,          64620.,           163.1,          64680.,           163.1,          64740.,           163.1
         64800.,           163.1,          64860.,           163.1,          64920.,           163.1,          64980.,           163.1
         65040.,           163.1,          65100.,           163.1,          65160.,           163.1,          65220.,           163.1
         65280.,           163.1,          65340.,           163.1,          65400.,           163.1,          65460.,           163.1
         65520.,           163.1,          65580.,           163.1,          65640.,           163.1,          65700.,           163.1
         65760.,           163.1,          65820.,           163.1,          65880.,           163.1,          65940.,           163.1
         66000.,           163.1,          66060.,           163.1,          66120.,           163.1,          66180.,           163.1
         66240.,           163.1,          66300.,           163.1,          66360.,           163.1,          66420.,           163.1
         66480.,           163.1,          66540.,           163.1,          66600.,           163.1,          66660.,           163.1
         66720.,           163.1,          66780.,           163.1,          66840.,           163.1,          66900.,           163.1
         66960.,           163.1,          67020.,           163.1,          67080.,           163.1,          67140.,           163.1
         67200.,           163.1,          67260.,           163.1,          67320.,           163.1,          67380.,           163.1
         67440.,           163.1,          67500.,           163.1,          67560.,           163.1,          67620.,           163.1
         67680.,           163.1,          67740.,           163.1,          67800.,           163.1,          67860.,           163.1
         67920.,           163.1,          67980.,           163.1,          68040.,           163.1,          68100.,           163.1
         68160.,           163.1,          68220.,           163.1,          68280.,           163.1,          68340.,           163.1
         68400.,           163.1,          68460.,           163.1,          68520.,           163.1,          68580.,           163.1
         68640.,           163.1,          68700.,           163.1,          68760.,           163.1,          68820.,           163.1
         68880.,           163.1,          68940.,           163.1,          69000.,           163.1,          69060.,           163.1
         69120.,           163.1,          69180.,           163.1,          69240.,           163.1,          69300.,           163.1
         69360.,           163.1,          69420.,           163.1,          69480.,           163.1,          69540.,           163.1
         69600.,           163.1,          69660.,           163.1,          69720.,           163.1,          69780.,           163.1
         69840.,           163.1,          69900.,           163.1,          69960.,           163.1,          70020.,           163.1
         70080.,           163.1,          70140.,           163.1,          70200.,           163.1,          70260.,           163.1
         70320.,           163.1,          70380.,           163.1,          70440.,           163.1,          70500.,           163.1
         70560.,           163.1,          70620.,           163.1,          70680.,           163.1,          70740.,           163.1
         70800.,           163.1,          70860.,           163.1,          70920.,           163.1,          70980.,           163.1
         71040.,           163.1,          71100.,           163.1,          71160.,           163.1,          71220.,           163.1
         71280.,           163.1,          71340.,           163.1,          71400.,           163.1,          71460.,           163.1
         71520.,           163.1,          71580.,           163.1,          71640.,           163.1,          71700.,           163.1
         71760.,           163.1,          71820.,           163.1,          71880.,           163.1,          71940.,           163.1
         72000.,           163.1,          72060.,           163.1,          72120.,           163.1,          72180.,           163.1
         72240.,           163.1,          72300.,           163.1,          72360.,           163.1,          72420.,           163.1
         72480.,           163.1,          72540.,           163.1,          72600.,           163.1,          72660.,           163.1
         72720.,           163.1,          72780.,           163.1,          72840.,           163.1,          72900.,           163.1
         72960.,           163.1,          73020.,           163.1,          73080.,           163.1,          73140.,           163.1
         73200.,           163.1,          73260.,           163.1,          73320.,           163.1,          73380.,           163.1
         73440.,           163.1,          73500.,           163.1,          73560.,           163.1,          73620.,           163.1
         73680.,           163.1,          73740.,           163.1,          73800.,           163.1,          73860.,           163.1
         73920.,           163.1,          73980.,           163.1,          74040.,           163.1,          74100.,           163.1
         74160.,           163.1,          74220.,           163.1,          74280.,           163.1,          74340.,           163.1
         74400.,           163.1,          74460.,           163.1,          74520.,           163.1,          74580.,           163.1
         74640.,           163.1,          74700.,           163.1,          74760.,           163.1,          74820.,           163.1
         74880.,           163.1,          74940.,           163.1,          75000.,           163.1,          75060.,           163.1
         75120.,           163.1,          75180.,           163.1,          75240.,           163.1,          75300.,           163.1
         75360.,           163.1,          75420.,           163.1,          75480.,           163.1,          75540.,           163.1
         75600.,           163.1,          75660.,           163.1,          75720.,           163.1,          75780.,           163.1
         75840.,           163.1,          75900.,           163.1,          75960.,           163.1,          76020.,           163.1
         76080.,           163.1,          76140.,           163.1,          76200.,           163.1,          76260.,           163.1
         76320.,           163.1,          76380.,           163.1,          76440.,           163.1,          76500.,           163.1
         76560.,           163.1,          76620.,           163.1,          76680.,           163.1,          76740.,           163.1
         76800.,           163.1,          76860.,           163.1,          76920.,           163.1,          76980.,           163.1
         77040.,           163.1,          77100.,           163.1,          77160.,           163.1,          77220.,           163.1
         77280.,           163.1,          77340.,           163.1,          77400.,           163.1,          77460.,           163.1
         77520.,           163.1,          77580.,           163.1,          77640.,           163.1,          77700.,           163.1
         77760.,           163.1,          77820.,           163.1,          77880.,           163.1,          77940.,           163.1
         78000.,           163.1,          78060.,           163.1,          78120.,           163.1,          78180.,           163.1
         78240.,           163.1,          78300.,           163.1,          78360.,           163.1,          78420.,           163.1
         78480.,           163.1,          78540.,           163.1,          78600.,           163.1,          78660.,           163.1
         78720.,           163.1,          78780.,           163.1,          78840.,           163.1,          78900.,           163.1
         78960.,           163.1,          79020.,           163.1,          79080.,           163.1,          79140.,           163.1
         79200.,           163.1,          79260.,           163.1,          79320.,           163.1,          79380.,           163.1
         79440.,           163.1,          79500.,           163.1,          79560.,           163.1,          79620.,           163.1
         79680.,           163.1,          79740.,           163.1,          79800.,           163.1,          79860.,           163.1
         79920.,           163.1,          79980.,           163.1,          80040.,           163.1,          80100.,           163.1
         80160.,           163.1,          80220.,           163.1,          80280.,           163.1,          80340.,           163.1
         80400.,           163.1,          80460.,           163.1,          80520.,           163.1,          80580.,           163.1
         80640.,           163.1,          80700.,           163.1,          80760.,           163.1,          80820.,           163.1
         80880.,           163.1,          80940.,           163.1,          81000.,           163.1,          81060.,           163.1
         81120.,           163.1,          81180.,           163.1,          81240.,           163.1,          81300.,           163.1
         81360.,           163.1,          81420.,           163.1,          81480.,           163.1,          81540.,           163.1
         81600.,           163.1,          81660.,           163.1,          81720.,           163.1,          81780.,           163.1
         81840.,           163.1,          81900.,           163.1,          81960.,           163.1,          82020.,           163.1
         82080.,           163.1,          82140.,           163.1,          82200.,           163.1,          82260.,           163.1
         82320.,           163.1,          82380.,           163.1,          82440.,           163.1,          82500.,           163.1
         82560.,           163.1,          82620.,           163.1,          82680.,           163.1,          82740.,           163.1
         82800.,           163.1,          82860.,           163.1,          82920.,           163.1,          82980.,           163.1
         83040.,           163.1,          83100.,           163.1,          83160.,           163.1,          83220.,           163.1
         83280.,           163.1,          83340.,           163.1,          83400.,           163.1,          83460.,           163.1
         83520.,           163.1,          83580.,           163.1,          83640.,           163.1,          83700.,           163.1
         83760.,           163.1,          83820.,           163.1,          83880.,           163.1,          83940.,           163.1
         84000.,           163.1,          84060.,           163.1,          84120.,           163.1,          84180.,           163.1
         84240.,           163.1,          84300.,           163.1,          84360.,           163.1,          84420.,           163.1
         84480.,           163.1,          84540.,           163.1,          84600.,           163.1,          84660.,           163.1
         84720.,           163.1,          84780.,           163.1,          84840.,           163.1,          84900.,           163.1
         84960.,           163.1,          85020.,           163.1,          85080.,           163.1,          85140.,           163.1
         85200.,           163.1,          85260.,           163.1,          85320.,           163.1,          85380.,           163.1
         85440.,           163.1,          85500.,           163.1,          85560.,           163.1,          85620.,           163.1
         85680.,           163.1,          85740.,           163.1,          85800.,           163.1,          85860.,           163.1
         85920.,           163.1,          85980.,           163.1,          86040.,           163.1,          86100.,           163.1
         86160.,           163.1,          86220.,           163.1,          86280.,           163.1,          86340.,           163.1
         86400.,           163.1
*Amplitude, name=Heating
             0.,            25.4,             60.,            26.6,            120.,            30.5,            180.,            34.6
           240.,            39.1,            300.,             43.,            360.,            47.2,            420.,            51.5
           480.,             55.,            540.,             59.,            600.,            62.7,            660.,            66.9
           720.,            70.4,            780.,            74.8,            840.,            78.8,            900.,            82.7
           960.,             87.,           1020.,            90.9,           1080.,            95.4,           1140.,            98.5
          1200.,           102.8,           1260.,            107.,           1320.,           111.1,           1380.,           115.7
          1440.,           118.9,           1500.,           122.8,           1560.,           127.7,           1620.,           131.4
          1680.,           135.4,           1740.,           140.4,           1800.,           143.8,           1860.,           148.1
          1920.,            152.,           1980.,           156.3,           2040.,           159.7,           2100.,           163.9
          2160.,           168.2,           2220.,           172.8,           2280.,           176.6,           2340.,           180.3
          2400.,           182.1
*Amplitude, name=Hold1_LT
             0.,            32.5,             60.,            31.6,            120.,            31.7,            180.,            30.2
           240.,            30.4,            300.,            30.7,            360.,            29.3,            420.,            28.9
           480.,            29.6,            540.,            28.5,            600.,             29.,            660.,            28.3
           720.,            27.6,            780.,            28.1,            840.,            27.3,            900.,            27.2
           960.,            27.7,           1020.,            27.2,           1080.,            26.8,           1140.,            27.1
          1200.,            26.8,           1260.,            26.6,           1320.,            26.6,           1380.,            26.2
          1440.,            26.1,           1500.,            26.3,           1560.,            25.9,           1620.,            26.3
          1680.,            26.7,           1740.,            26.3,           1800.,            26.1,           1860.,            25.8
          1920.,            25.9,           1980.,            25.7,           2040.,            25.7,           2100.,            25.4
          2160.,            25.7,           2220.,            25.9,           2280.,            25.7,           2340.,            25.5
          2400.,            25.4,           2460.,            25.3,           2520.,            25.4,           2580.,            25.3
          2640.,            25.4,           2700.,            25.4
*Amplitude, name=Hold2_HT
             0.,           182.1,             60.,           183.4,            120.,           184.2,            180.,           185.8
           240.,           185.7,            300.,           186.7,            360.,           187.7,            420.,           187.9
           480.,           188.4,            540.,           189.7,            600.,           190.6,            660.,           190.6
           720.,           190.6,            780.,           191.2,            840.,           191.5,            900.,           191.9
           960.,           192.6,           1020.,           192.2,           1080.,           192.8,           1140.,           192.9
          1200.,           193.8,           1260.,           193.4,           1320.,           193.9,           1380.,           193.7
          1440.,           193.9,           1500.,           194.5,           1560.,           194.8,           1620.,           194.5
          1680.,           195.2,           1740.,           194.9,           1800.,           195.2,           1860.,           195.3
          1920.,           195.2,           1980.,           195.6,           2040.,           195.7,           2100.,           195.8
          2160.,           195.7,           2220.,           195.7,           2280.,           195.9,           2340.,           195.4
          2400.,           196.2,           2460.,           196.3,           2520.,           196.3,           2580.,           195.9
          2640.,           196.4,           2700.,           196.6,           2760.,           196.5,           2820.,           197.1
          2880.,           196.2,           2940.,           196.6,           3000.,           196.4,           3060.,           196.7
          3120.,           197.2,           3180.,           197.3,           3240.,           196.9,           3300.,           196.9
          3360.,           197.4,           3420.,           196.8,           3480.,           197.3
*Amplitude, name=Hold3_LT
             0.,            31.7,             60.,            31.3,            120.,            31.2,            180.,            31.2
           240.,            29.8,            300.,            30.3,            360.,            29.8,            420.,            29.1
           480.,            28.4,            540.,            28.9,            600.,            28.1,            660.,            28.2
           720.,            27.8,            780.,            27.3,            840.,            27.2,            900.,            27.5
           960.,            27.1,           1020.,            26.7,           1080.,            26.9,           1140.,            26.7
          1200.,            26.4,           1260.,            26.8,           1320.,            26.6,           1380.,            26.2
          1440.,            26.1,           1500.,            26.5,           1560.,            26.4,           1620.,            26.2
          1680.,             26.,           1740.,            25.7,           1800.,            25.9,           1860.,            25.7
          1920.,            25.7,           1980.,            25.8,           2040.,            25.6,           2100.,            25.6
          2160.,            25.7,           2220.,            25.5,           2280.,            25.6,           2340.,            25.8
          2400.,            25.7,           2460.,            25.6,           2520.,            25.5,           2580.,            25.4
          2640.,            25.7
*Amplitude, name=Temp_down
          0.004,        219.8214,     0.004166667,        219.8158,          0.0125,         219.813,      0.02083334,         219.821
     0.02916666,        219.8186,          0.0375,          219.82,      0.04583334,        219.8191,      0.05416668,         219.819
         0.0625,        219.8192,      0.07083332,        219.8106,      0.07916666,        219.8092,          0.0875,        219.8058
     0.09583332,        219.7987,       0.1041666,        219.7969,          0.1125,        219.7852,       0.1208333,         219.781
      0.1291666,        219.7727,          0.1375,        219.7607,       0.1458333,         219.748,       0.1541667,        219.7336
         0.1625,        219.7242,       0.1708334,        219.7085,       0.1791666,        219.6936,          0.1875,         219.677
      0.1958334,         219.656,       0.2041667,        219.6348,          0.2125,        219.6282,       0.2208333,        219.6046
      0.2291667,         219.582,          0.2375,          219.56,       0.2458334,        219.5396,       0.2541666,        219.5146
         0.2625,        219.4938,       0.2708334,        219.4698,       0.2791667,         219.437,          0.2875,        219.4127
      0.2958333,        219.3906,       0.3041667,        219.3638,          0.3125,        219.3334,       0.3208333,        219.3023
      0.3291667,        219.2706,          0.3375,        219.2455,       0.3458333,        219.2178,       0.3541666,        219.1802
         0.3625,        219.1557,       0.3708334,        219.1201,       0.3791666,        219.0894,          0.3875,        219.0506
      0.3958334,         219.024,       0.4041666,        218.9965,          0.4125,        218.9545,       0.4208333,        218.9262
      0.4291667,        218.8906,          0.4375,        218.8588,       0.4458333,        218.8183,       0.4541667,        218.7825
         0.4625,        218.7448,       0.4708334,        218.7156,       0.4791666,        218.6802,          0.4875,        218.6366
      0.4958334,        218.6027,       0.5041666,        218.5672,          0.5125,        218.5284,       0.5208332,        218.4855
      0.5291666,        218.4547,          0.5375,        218.4176,       0.5458334,         218.379,       0.5541668,        218.3404
         0.5625,         218.296,       0.5708332,        218.2574,       0.5791666,        218.2241,          0.5875,        218.1812
      0.5958334,        218.1451,       0.6041668,        218.1039,          0.6125,        218.0666,       0.6208334,        218.0239
      0.6291666,        217.9812,          0.6375,        217.9489,       0.6458332,        217.9066,       0.6541666,        217.8637
         0.6625,        217.8258,       0.6708334,        217.7882,       0.6791668,        217.7431,          0.6875,        217.7027
      0.6958332,        217.6667,       0.7041666,        217.6218,          0.7125,        217.5816,       0.7208334,         217.541
      0.7291668,        217.4975,          0.7375,        217.4586,       0.7458334,         217.414,       0.7541666,        217.3779
         0.7625,        217.3372,       0.7708332,        217.2938,       0.7791666,          217.25,          0.7875,        217.2094
      0.7958334,        217.1707,       0.8041668,        217.1285,          0.8125,        217.0839,       0.8208332,        217.0394
      0.8291666,        216.9991,          0.8375,         216.959,       0.8458334,        216.9142,       0.8541668,        216.8754
         0.8625,        216.8324,       0.8708332,         216.795,       0.8791668,         216.747,          0.8875,        216.7073
      0.8958332,        216.6685,       0.9041666,        216.6234,          0.9125,        216.5814,       0.9208334,        216.5334
      0.9291668,        216.4992,          0.9375,         216.452,       0.9458332,        216.4148,       0.9541666,        216.3669
         0.9625,        216.3271,       0.9708334,        216.2855,       0.9791668,        216.2398,          0.9875,        216.2017
      0.9958332,         216.158,        1.004167,        216.1214,          1.0125,        216.0762,        1.020833,        216.0367
       1.029167,         215.995,          1.0375,        215.9478,        1.045834,        215.9089,        1.054167,        215.8567
         1.0625,         215.823,        1.070833,        215.7718,        1.079166,         215.737,          1.0875,        215.6937
       1.095833,        215.6526,        1.104166,        215.6022,          1.1125,        215.5689,        1.120833,        215.5276
       1.129167,         215.479,          1.1375,        215.4402,        1.145834,        215.3978,        1.154167,        215.3534
         1.1625,         215.311,        1.170834,        215.2674,        1.179167,        215.2348,          1.1875,        215.1886
       1.195833,        215.1453,        1.204166,        215.0999,          1.2125,        215.0596,        1.220833,        215.0174
       1.229166,        214.9799,          1.2375,        214.9328,        1.245833,        214.8918,        1.254167,          214.85
         1.2625,        214.8068,        1.270834,        214.7675,        1.279167,        214.7299,          1.2875,        214.6853
       1.295834,        214.6392,        1.304167,        214.6021,          1.3125,          214.56,        1.320833,        214.5187
       1.329166,        214.4718,          1.3375,         214.432,        1.345833,        214.3907,        1.354166,        214.3498
         1.3625,        214.3011,        1.370833,         214.257,        1.379167,        214.2218,          1.3875,        214.1783
       1.395834,        214.1342,        1.404167,        214.0928,          1.4125,        214.0492,        1.420834,        214.0118
       1.429167,        213.9636,          1.4375,         213.929,        1.445833,         213.881,        1.454166,        213.8465
         1.4625,        213.7992,        1.470833,        213.7524,        1.479166,        213.7126,          1.4875,        213.6712
       1.495833,        213.6336,        1.504167,        213.5922,          1.5125,        213.5444,        1.520834,        213.5098
       1.529167,         213.468,          1.5375,        213.4262,        1.545834,        213.3787,        1.554167,        213.3455
         1.5625,        213.2963,        1.570833,        213.2556,        1.579166,        213.2161,          1.5875,         213.175
       1.595833,        213.1284,        1.604166,        213.0898,          1.6125,         213.047,        1.620833,         213.009
       1.629167,        212.9624,          1.6375,        212.9217,        1.645834,        212.8828,        1.654167,        212.8362
         1.6625,        212.7973,        1.670834,        212.7556,        1.679166,        212.7116,          1.6875,        212.6723
       1.695834,        212.6295,        1.704166,        212.5903,          1.7125,        212.5497,        1.720833,        212.5031
       1.729166,        212.4676,          1.7375,        212.4232,        1.745833,         212.381,        1.754167,        212.3396
         1.7625,        212.2973,        1.770834,        212.2524,        1.779167,         212.215,          1.7875,        212.1766
       1.795834,        212.1338,        1.804166,        212.0889,          1.8125,        212.0469,        1.820834,        212.0076
       1.829166,        211.9662,          1.8375,        211.9244,        1.845833,         211.884,        1.854166,        211.8392
         1.8625,        211.7957,        1.870833,        211.7573,        1.879167,        211.7215,          1.8875,        211.6781
       1.895834,         211.639,        1.904167,        211.5914,          1.9125,        211.5525,        1.920834,        211.5036
       1.929166,        211.4637,          1.9375,        211.4291,        1.945834,        211.3825,        1.954166,        211.3472
         1.9625,        211.2984,        1.970833,        211.2573,        1.979166,        211.2112,          1.9875,         211.171
       1.995833,        211.1313,        2.004166,        211.0922,          2.0125,        211.0565,        2.020833,        211.0108
       2.029167,         210.968,          2.0375,        210.9272,        2.045834,        210.8863,        2.054166,        210.8446
         2.0625,        210.8034,        2.070834,        210.7578,        2.079166,        210.7214,          2.0875,        210.6794
       2.095833,         210.636,        2.104167,         210.594,          2.1125,        210.5556,        2.120834,          210.51
       2.129166,        210.4709,          2.1375,        210.4267,        2.145833,        210.3877,        2.154167,        210.3483
         2.1625,         210.305,        2.170834,        210.2648,        2.179166,        210.2208,          2.1875,        210.1782
       2.195834,        210.1406,        2.204166,        210.0956,          2.2125,        210.0598,        2.220833,        210.0123
       2.229167,        209.9693,          2.2375,        209.9289,        2.245834,        209.8904,        2.254166,        209.8478
         2.2625,        209.8116,        2.270833,        209.7596,        2.279167,        209.7209,          2.2875,        209.6862
       2.295834,        209.6376,        2.304166,        209.5964,          2.3125,        209.5512,        2.320834,        209.5178
       2.329166,        209.4726,          2.3375,        209.4318,        2.345833,        209.3944,        2.354167,         209.345
         2.3625,         209.303,        2.370834,        209.2632,        2.379166,        209.2258,          2.3875,        209.1774
       2.395833,        209.1422,        2.404167,        209.1022,          2.4125,        209.0538,        2.420834,        209.0124
       2.429166,        208.9773,          2.4375,        208.9315,        2.445834,        208.8982,        2.454166,        208.8608
         2.4625,        208.8198,        2.470833,        208.7722,        2.479167,        208.7328,          2.4875,        208.6864
       2.495834,        208.6434,        2.504166,        208.6058,          2.5125,        208.5626,        2.520833,         208.526
       2.529167,        208.4803,          2.5375,        208.4394,        2.545834,        208.3918,        2.554166,        208.3539
         2.5625,        208.3112,        2.570834,        208.2695,        2.579166,        208.2232,          2.5875,        208.1875
       2.595833,        208.1508,        2.604167,        208.1121,          2.6125,        208.0612,        2.620834,        208.0222
       2.629166,        207.9797,          2.6375,         207.945,        2.645833,        207.8997,        2.654167,        207.8562
         2.6625,        207.8197,        2.670834,        207.7732,        2.679166,        207.7321,          2.6875,        207.6892
       2.695834,        207.6463,        2.704166,        207.6096,          2.7125,        207.5616,        2.720833,        207.5239
       2.729167,        207.4862,          2.7375,        207.4392,        2.745834,        207.4047,        2.754166,        207.3609
         2.7625,        207.3196,        2.770833,        207.2776,        2.779167,        207.2371,          2.7875,        207.1952
       2.795834,        207.1512,        2.804166,        207.1136,          2.8125,        207.0672,        2.820834,        207.0264
       2.829166,        206.9865,          2.8375,        206.9511,        2.845833,        206.9014,        2.854167,        206.8664
         2.8625,        206.8198,        2.870834,        206.7805,        2.879166,        206.7398,          2.8875,        206.6949
       2.895833,        206.6539,        2.904167,        206.6173,          2.9125,        206.5721,        2.920834,         206.529
       2.929166,        206.4852,          2.9375,        206.4456,        2.945834,        206.3994,        2.954166,        206.3609
         2.9625,        206.3254,        2.970833,        206.2797,        2.979167,        206.2381,          2.9875,        206.1997
       2.995834,         206.159,        3.004166,        206.1132,          3.0125,        206.0713,        3.020833,        206.0384
       3.029167,         205.992,          3.0375,        205.9495,        3.045834,        205.9076,        3.054166,        205.8645
         3.0625,        205.8246,        3.070834,        205.7826,        3.079166,        205.7438,          3.0875,        205.6972
       3.095833,        205.6608,        3.104167,        205.6184,          3.1125,        205.5781,        3.120834,         205.534
       3.129166,         205.494,          3.1375,        205.4499,        3.145833,        205.4133,        3.154167,        205.3668
         3.1625,        205.3256,        3.170834,        205.2842,        3.179166,         205.247,          3.1875,        205.2043
       3.195834,         205.163,        3.204167,         205.127,          3.2125,        205.0769,        3.220833,        205.0352
       3.229167,        204.9933,          3.2375,         204.952,        3.245834,        204.9091,        3.254166,         204.873
         3.2625,        204.8304,        3.270833,        204.7909,        3.279167,        204.7408,          3.2875,        204.7046
       3.295833,         204.665,        3.304166,        204.6261,          3.3125,        204.5825,        3.320834,        204.5334
       3.329167,        204.4922,          3.3375,        204.4541,        3.345833,        204.4129,        3.354167,        204.3702
         3.3625,         204.329,        3.370834,        204.2894,        3.379166,        204.2496,          3.3875,        204.2068
       3.395833,        204.1636,        3.404167,        204.1212,          3.4125,        204.0839,        3.420833,        204.0408
       3.429166,        203.9988,          3.4375,        203.9562,        3.445834,         203.913,        3.454167,        203.8713
         3.4625,        203.8333,        3.470833,        203.7906,        3.479167,        203.7441,          3.4875,        203.7094
       3.495834,        203.6624,        3.504166,        203.6233,          3.5125,        203.5758,        3.520833,        203.5421
       3.529167,        203.4973,          3.5375,        203.4596,        3.545833,        203.4085,        3.554166,          203.37
         3.5625,        203.3343,        3.570834,        203.2894,        3.579167,        203.2487,          3.5875,        203.2097
       3.595833,        203.1646,        3.604167,        203.1272,          3.6125,        203.0848,        3.620834,        203.0445
       3.629166,        202.9951,          3.6375,        202.9549,        3.645833,        202.9184,        3.654167,        202.8806
         3.6625,        202.8315,        3.670833,         202.788,        3.679166,        202.7502,          3.6875,        202.7088
       3.695834,        202.6725,        3.704167,         202.623,          3.7125,        202.5873,        3.720833,        202.5453
       3.729167,        202.5018,          3.7375,        202.4633,        3.745834,        202.4239,        3.754166,        202.3701
         3.7625,        202.3377,        3.770833,        202.2968,        3.779167,          202.25,          3.7875,        202.2051
       3.795833,        202.1706,        3.804166,         202.129,          3.8125,        202.0893,        3.820834,        202.0452
       3.829167,        201.9953,          3.8375,        201.9644,        3.845833,        201.9248,        3.854167,        201.8816
         3.8625,        201.8349,        3.870834,        201.7918,        3.879166,        201.7528,          3.8875,        201.7147
       3.895833,        201.6614,        3.904167,        201.6281,          3.9125,        201.5841,        3.920833,        201.5486
       3.929166,        201.5073,          3.9375,        201.4663,        3.945834,        201.4214,        3.954167,         201.376
         3.9625,        201.3381,        3.970833,        201.2937,        3.979167,        201.2523,          3.9875,        201.2146
       3.995834,        201.1756,        4.004166,        201.1244,          4.0125,        201.0918,        4.020834,         201.046
       4.029167,        201.0041,          4.0375,        200.9607,        4.045833,        200.9186,        4.054167,        200.8785
         4.0625,        200.8422,        4.070833,        200.7958,        4.079167,        200.7549,          4.0875,        200.7184
       4.095833,        200.6734,        4.104166,        200.6314,          4.1125,        200.5889,        4.120834,        200.5522
       4.129166,        200.5061,          4.1375,        200.4674,        4.145834,        200.4247,        4.154167,        200.3811
         4.1625,        200.3346,        4.170833,        200.2946,        4.179167,        200.2558,          4.1875,        200.2181
       4.195833,        200.1667,        4.204167,        200.1302,          4.2125,         200.092,        4.220833,        200.0492
       4.229166,         200.001,          4.2375,        199.9627,        4.245834,         199.922,        4.254166,        199.8839
         4.2625,        199.8342,        4.270834,        199.7912,        4.279167,        199.7531,          4.2875,        199.7033
       4.295833,        199.6736,        4.304167,        199.6339,          4.3125,        199.5902,        4.320833,        199.5466
       4.329167,        199.5061,          4.3375,        199.4603,        4.345833,        199.4175,        4.354166,         199.378
         4.3625,        199.3414,        4.370834,        199.2943,        4.379166,        199.2548,          4.3875,        199.2126
       4.395834,        199.1726,        4.404167,        199.1286,          4.4125,        199.0877,        4.420833,        199.0459
       4.429167,        199.0057,          4.4375,        198.9631,        4.445833,        198.9163,        4.454167,        198.8746
         4.4625,        198.8281,        4.470833,        198.7913,        4.479166,        198.7484,          4.4875,        198.7144
       4.495834,        198.6695,        4.504166,        198.6316,          4.5125,        198.5863,        4.520834,        198.5447
       4.529167,        198.5055,          4.5375,        198.4567,        4.545833,        198.4198,        4.554167,        198.3764
         4.5625,        198.3377,        4.570833,        198.2966,        4.579167,        198.2559,          4.5875,        198.2038
       4.595833,        198.1728,        4.604166,        198.1263,          4.6125,        198.0851,        4.620834,        198.0483
       4.629166,        198.0035,          4.6375,        197.9624,        4.645834,        197.9204,        4.654167,        197.8761
         4.6625,        197.8382,        4.670833,        197.8008,        4.679167,        197.7502,          4.6875,        197.7107
       4.695833,        197.6741,        4.704167,         197.625,          4.7125,        197.5862,        4.720833,        197.5436
       4.729166,        197.5044,          4.7375,         197.463,        4.745834,        197.4231,        4.754166,        197.3791
         4.7625,        197.3336,        4.770834,        197.3014,        4.779167,        197.2464,          4.7875,        197.2095
       4.795833,        197.1669,        4.804167,        197.1262,          4.8125,        197.0883,        4.820833,        197.0459
       4.829167,        197.0042,          4.8375,        196.9626,        4.845833,        196.9232,        4.854166,        196.8815
         4.8625,        196.8417,        4.870834,        196.7901,        4.879166,        196.7561,          4.8875,        196.7127
       4.895834,        196.6741,        4.904167,        196.6246,          4.9125,        196.5904,        4.920833,        196.5428
       4.929167,         196.509,          4.9375,        196.4602,        4.945833,        196.4248,        4.954167,          196.38
         4.9625,        196.3391,        4.970833,        196.2977,        4.979166,        196.2562,          4.9875,        196.2091
       4.995834,         196.174,        5.004166,        196.1277,          5.0125,        196.0913,        5.020834,        196.0514
       5.029167,         195.997,          5.0375,        195.9627,        5.045833,        195.9216,        5.054167,        195.8795
         5.0625,        195.8405,        5.070833,        195.7987,        5.079167,        195.7563,          5.0875,        195.7154
       5.095833,        195.6743,        5.104166,        195.6299,          5.1125,        195.5894,        5.120834,        195.5497
       5.129166,        195.5044,          5.1375,        195.4625,        5.145834,        195.4232,        5.154167,        195.3793
         5.1625,        195.3374,        5.170833,         195.295,        5.179167,        195.2531,          5.1875,        195.2125
       5.195833,        195.1696,        5.204167,        195.1316,          5.2125,        195.0877,        5.220833,        195.0421
       5.229166,        195.0039,          5.2375,        194.9592,        5.245834,        194.9213,        5.254166,        194.8832
         5.2625,        194.8387,        5.270834,        194.7955,        5.279168,        194.7544,          5.2875,         194.707
       5.295832,        194.6701,        5.304168,        194.6235,          5.3125,         194.589,        5.320832,        194.5516
       5.329168,        194.5036,          5.3375,        194.4632,        5.345832,        194.4239,        5.354166,        194.3791
         5.3625,        194.3386,        5.370834,         194.296,        5.379166,        194.2535,          5.3875,        194.2141
       5.395834,        194.1727,        5.404168,        194.1274,          5.4125,        194.0849,        5.420832,         194.046
       5.429168,        194.0058,          5.4375,        193.9644,        5.445832,        193.9243,        5.454168,        193.8779
         5.4625,         193.841,        5.470832,        193.7939,        5.479166,         193.753,          5.4875,        193.7148
       5.495834,         193.669,        5.504166,        193.6255,          5.5125,         193.584,        5.520834,        193.5455
       5.529168,        193.5003,          5.5375,        193.4651,        5.545832,        193.4161,        5.554168,          193.38
         5.5625,        193.3373,        5.570832,        193.2931,        5.579168,        193.2556,          5.5875,        193.2116
       5.595832,        193.1692,        5.604166,        193.1327,          5.6125,        193.0805,        5.620834,        193.0439
       5.629166,        193.0037,          5.6375,        192.9613,        5.645834,        192.9188,        5.654168,        192.8768
         5.6625,        192.8346,        5.670832,        192.7881,        5.679168,        192.7546,          5.6875,        192.7099
       5.695832,         192.664,        5.704168,        192.6248,          5.7125,        192.5864,        5.720832,        192.5435
       5.729166,        192.5006,          5.7375,        192.4639,        5.745834,        192.4114,        5.754166,        192.3773
         5.7625,        192.3293,        5.770834,        192.2969,        5.779168,        192.2566,          5.7875,        192.2087
       5.795832,        192.1692,        5.804168,        192.1249,          5.8125,         192.084,        5.820832,         192.045
       5.829168,        192.0048,          5.8375,        191.9611,        5.845832,        191.9226,        5.854166,        191.8737
         5.8625,        191.8322,        5.870834,        191.7952,        5.879166,        191.7534,          5.8875,        191.7094
       5.895834,        191.6655,        5.904168,        191.6271,          5.9125,        191.5856,        5.920832,        191.5449
       5.929168,        191.5038,          5.9375,        191.4594,        5.945832,        191.4221,        5.954168,        191.3781
         5.9625,        191.3334,        5.970832,        191.2867,        5.979166,        191.2521,          5.9875,        191.2111
       5.995834,        191.1688,        6.004166,        191.1299,          6.0125,        191.0881,        6.020834,        191.0422
       6.029168,        191.0017,          6.0375,        190.9598,        6.045832,        190.9189,        6.054168,        190.8706
         6.0625,        190.8379,        6.070832,        190.7817,        6.079168,        190.7515,          6.0875,        190.7116
       6.095832,        190.6666,        6.104166,        190.6309,          6.1125,        190.5824,        6.120834,        190.5437
       6.129166,        190.4979,          6.1375,        190.4549,        6.145834,         190.423,        6.154168,        190.3762
         6.1625,        190.3326,        6.170832,        190.2928,        6.179168,          190.25,          6.1875,        190.2127
       6.195832,        190.1756,        6.204168,        190.1254,          6.2125,        190.0868,        6.220832,        190.0405
       6.229166,        190.0035,          6.2375,        189.9626,        6.245834,        189.9186,        6.254166,        189.8777
         6.2625,         189.838,        6.270834,        189.7998,        6.279168,        189.7514,          6.2875,        189.7136
       6.295832,        189.6691,        6.304168,         189.632,          6.3125,         189.589,        6.320832,        189.5438
       6.329168,        189.5013,          6.3375,        189.4655,        6.345832,        189.4202,        6.354166,        189.3762
         6.3625,        189.3342,        6.370834,        189.2963,        6.379166,        189.2524,          6.3875,        189.2147
       6.395834,        189.1704,        6.404166,        189.1301,          6.4125,        189.0848,        6.420832,        189.0443
       6.429168,        189.0049,          6.4375,        188.9578,        6.445832,        188.9167,        6.454168,        188.8773
         6.4625,        188.8349,        6.470834,        188.7974,        6.479166,        188.7512,          6.4875,        188.7114
       6.495834,         188.668,        6.504166,        188.6286,          6.5125,        188.5884,        6.520834,        188.5419
       6.529166,        188.5037,          6.5375,        188.4631,        6.545832,        188.4199,        6.554168,        188.3722
         6.5625,        188.3336,        6.570832,        188.2968,        6.579168,         188.255,          6.5875,        188.2152
       6.595834,        188.1664,        6.604166,        188.1261,          6.6125,        188.0848,        6.620834,        188.0434
       6.629166,        188.0006,          6.6375,        187.9617,        6.645834,        187.9177,        6.654166,        187.8784
         6.6625,        187.8387,        6.670832,        187.7924,        6.679168,        187.7522,          6.6875,        187.7092
       6.695832,        187.6639,        6.704168,        187.6255,          6.7125,        187.5772,        6.720834,        187.5408
       6.729166,        187.4949,          6.7375,        187.4569,        6.745834,        187.4171,        6.754166,        187.3749
         6.7625,         187.328,        6.770834,        187.2904,        6.779166,        187.2489,          6.7875,        187.2073
       6.795832,        187.1681,        6.804168,        187.1188,          6.8125,        187.0821,        6.820832,        187.0393
       6.829168,        187.0027,          6.8375,        186.9579,        6.845834,        186.9176,        6.854166,        186.8702
         6.8625,        186.8323,        6.870834,        186.7827,        6.879166,        186.7484,          6.8875,        186.7034
       6.895834,        186.6655,        6.904166,        186.6201,          6.9125,        186.5851,        6.920832,         186.543
       6.929168,        186.4989,          6.9375,        186.4563,        6.945832,        186.4165,        6.954168,        186.3751
         6.9625,        186.3286,        6.970834,        186.2928,        6.979166,        186.2536,          6.9875,        186.2095
       6.995834,        186.1651,        7.004166,        186.1196,          7.0125,        186.0838,        7.020834,         186.041
       7.029166,        186.0014,          7.0375,        185.9608,        7.045832,        185.9195,        7.054168,        185.8737
         7.0625,        185.8314,        7.070832,        185.7864,        7.079168,        185.7491,          7.0875,        185.7073
       7.095834,         185.669,        7.104166,        185.6269,          7.1125,        185.5756,        7.120834,          185.54
       7.129166,        185.4988,          7.1375,        185.4616,        7.145834,        185.4126,        7.154166,         185.375
         7.1625,         185.332,        7.170832,        185.2896,        7.179168,        185.2416,          7.1875,        185.2044
       7.195832,        185.1687,        7.204168,         185.122,          7.2125,         185.081,        7.220834,        185.0408
       7.229166,        185.0028,          7.2375,        184.9577,        7.245834,        184.9194,        7.254166,        184.8775
         7.2625,        184.8326,        7.270834,        184.7933,        7.279166,        184.7451,          7.2875,        184.7091
       7.295832,        184.6634,        7.304168,        184.6254,          7.3125,        184.5785,        7.320832,        184.5409
       7.329168,           184.5,          7.3375,        184.4599,        7.345834,        184.4151,        7.354166,         184.375
         7.3625,        184.3326,        7.370834,        184.2914,        7.379166,        184.2496,          7.3875,        184.2079
       7.395834,        184.1619,        7.404166,         184.121,          7.4125,        184.0725,        7.420832,        184.0311
       7.429168,        183.9925,          7.4375,        183.9539,        7.445832,        183.9162,        7.454168,        183.8718
         7.4625,        183.8308,        7.470834,        183.7914,        7.479166,        183.7489,          7.4875,        183.7014
       7.495834,        183.6617,        7.504166,        183.6264,          7.5125,        183.5838,        7.520834,        183.5384
       7.529166,        183.4945,          7.5375,         183.457,        7.545832,        183.4115,        7.554168,        183.3715
         7.5625,        183.3309,        7.570832,        183.2898,        7.579168,        183.2488,          7.5875,        183.2051
       7.595834,        183.1592,        7.604166,        183.1187,          7.6125,        183.0802,        7.620834,         183.036
       7.629166,        182.9925,          7.6375,        182.9567,        7.645834,         182.911,        7.654166,        182.8696
         7.6625,        182.8234,        7.670832,        182.7878,        7.679168,        182.7419,          7.6875,        182.7034
       7.695832,        182.6637,        7.704168,        182.6235,          7.7125,         182.578,        7.720834,        182.5375
       7.729166,        182.4954,          7.7375,        182.4531,        7.745834,        182.4113,        7.754166,        182.3724
         7.7625,        182.3227,        7.770834,         182.286,        7.779166,        182.2475,          7.7875,        182.2002
       7.795832,        182.1621,        7.804168,        182.1219,          7.8125,        182.0761,        7.820832,        182.0385
       7.829168,        181.9924,          7.8375,        181.9534,        7.845834,        181.9129,        7.854166,        181.8685
         7.8625,        181.8275,        7.870834,         181.783,        7.879166,        181.7456,          7.8875,         181.707
       7.895834,        181.6611,        7.904166,        181.6198,          7.9125,        181.5748,        7.920832,        181.5404
       7.929168,        181.4963,          7.9375,        181.4512,        7.945832,        181.4111,        7.954168,        181.3726
         7.9625,        181.3339,        7.970834,        181.2931,        7.979166,        181.2462,          7.9875,        181.2064
       7.995834,        181.1673,        8.004166,        181.1182,          8.0125,        181.0826,        8.020832,        181.0443
       8.029166,        180.9991,          8.0375,        180.9559,        8.045834,        180.9112,        8.054168,         180.872
         8.0625,        180.8297,        8.070832,         180.794,        8.079166,        180.7478,          8.0875,        180.7024
       8.095834,        180.6654,        8.104168,        180.6232,          8.1125,        180.5808,        8.120834,        180.5413
       8.129166,        180.5035,          8.1375,        180.4645,        8.145832,        180.4139,        8.154166,        180.3751
         8.1625,        180.3368,        8.170834,        180.2924,        8.179168,        180.2509,          8.1875,         180.204
       8.195832,        180.1599,        8.204166,        180.1255,          8.2125,        180.0766,        8.220834,        180.0388
       8.229168,        179.9994,          8.2375,        179.9601,        8.245834,         179.917,        8.254166,        179.8711
         8.2625,        179.8301,        8.270832,        179.7886,        8.279166,        179.7506,          8.2875,        179.7025
       8.295834,        179.6653,        8.304168,        179.6225,          8.3125,        179.5797,        8.320832,        179.5427
       8.329166,        179.4955,          8.3375,         179.457,        8.345834,        179.4154,        8.354168,        179.3684
         8.3625,        179.3297,        8.370834,        179.2915,        8.379166,        179.2439,          8.3875,        179.2072
       8.395832,        179.1668,        8.404166,         179.119,          8.4125,        179.0772,        8.420834,        179.0381
       8.429168,        178.9969,          8.4375,         178.957,        8.445832,        178.9156,        8.454166,        178.8714
         8.4625,        178.8293,        8.470834,        178.7851,        8.479168,         178.749,          8.4875,        178.7091
       8.495834,        178.6614,        8.504166,        178.6216,          8.5125,        178.5789,        8.520832,        178.5379
       8.529166,        178.4968,          8.5375,        178.4475,        8.545834,         178.414,        8.554168,        178.3731
         8.5625,        178.3312,        8.570832,        178.2928,        8.579166,        178.2475,          8.5875,        178.2082
       8.595834,         178.162,        8.604168,        178.1227,          8.6125,         178.082,        8.620834,        178.0338
       8.629166,        177.9953,          8.6375,        177.9514,        8.645832,        177.9145,        8.654166,        177.8726
         8.6625,        177.8294,        8.670834,        177.7852,        8.679168,        177.7468,          8.6875,        177.7022
       8.695832,        177.6646,        8.704166,        177.6194,          8.7125,        177.5824,        8.720834,        177.5362
       8.729168,        177.4899,          8.7375,        177.4556,        8.745834,        177.4118,        8.754166,        177.3718
         8.7625,        177.3284,        8.770832,        177.2838,        8.779166,        177.2438,          8.7875,        177.1973
       8.795834,        177.1602,        8.804168,        177.1163,          8.8125,        177.0736,        8.820832,        177.0328
       8.829166,        176.9917,          8.8375,          176.95,        8.845834,        176.9081,        8.854168,        176.8692
         8.8625,        176.8241,        8.870834,        176.7776,        8.879166,        176.7442,          8.8875,        176.7037
       8.895832,        176.6621,        8.904166,        176.6185,          8.9125,        176.5762,        8.920834,         176.533
       8.929168,        176.4917,          8.9375,        176.4523,        8.945832,        176.4081,        8.954166,        176.3656
         8.9625,        176.3235,        8.970834,        176.2842,        8.979168,        176.2436,          8.9875,        176.2024
       8.995834,        176.1598,        9.004166,        176.1133,          9.0125,        176.0698,        9.020832,        176.0259
       9.029166,        175.9926,          9.0375,        175.9509,        9.045834,        175.9116,        9.054168,        175.8645
         9.0625,        175.8256,        9.070832,         175.786,        9.079166,        175.7396,          9.0875,        175.6996
       9.095834,        175.6552,        9.104168,         175.617,          9.1125,        175.5728,        9.120834,        175.5346
       9.129166,        175.4938,          9.1375,        175.4495,        9.145832,        175.4016,        9.154166,        175.3649
         9.1625,        175.3188,        9.170834,        175.2836,        9.179168,        175.2423,          9.1875,        175.2052
       9.195832,         175.161,        9.204166,        175.1159,          9.2125,        175.0747,        9.220834,        175.0337
       9.229168,        174.9916,          9.2375,        174.9502,        9.245834,        174.9106,        9.254166,        174.8711
         9.2625,        174.8279,        9.270832,        174.7799,        9.279166,         174.746,          9.2875,        174.6976
       9.295834,        174.6573,        9.304168,        174.6181,          9.3125,        174.5781,        9.320832,        174.5376
       9.329166,        174.4929,          9.3375,        174.4534,        9.345834,        174.4093,        9.354168,        174.3716
         9.3625,        174.3238,        9.370834,        174.2854,        9.379166,        174.2428,          9.3875,        174.1949
       9.395832,        174.1572,        9.404166,        174.1184,          9.4125,        174.0766,        9.420834,        174.0305
       9.429168,        173.9881,          9.4375,        173.9493,        9.445832,        173.9083,        9.454166,        173.8637
         9.4625,        173.8222,        9.470834,        173.7808,        9.479168,        173.7423,          9.4875,        173.7025
       9.495834,        173.6603,        9.504166,        173.6187,          9.5125,        173.5761,        9.520832,        173.5246
       9.529166,        173.4937,          9.5375,        173.4518,        9.545834,         173.412,        9.554168,        173.3698
         9.5625,        173.3243,        9.570832,         173.286,        9.579166,        173.2473,          9.5875,        173.2012
       9.595834,        173.1614,        9.604168,        173.1224,          9.6125,         173.079,        9.620834,        173.0404
       9.629166,        172.9923,          9.6375,        172.9558,        9.645832,        172.9168,        9.654166,        172.8752
         9.6625,        172.8296,        9.670834,        172.7912,        9.679168,        172.7478,          9.6875,        172.7082
       9.695832,        172.6654,        9.704166,        172.6225,          9.7125,        172.5776,        9.720834,        172.5347
       9.729168,        172.5014,          9.7375,        172.4522,        9.745834,        172.4129,        9.754166,        172.3733
         9.7625,        172.3275,        9.770832,        172.2825,        9.779166,        172.2464,          9.7875,        172.2018
       9.795834,        172.1647,        9.804168,        172.1238,          9.8125,        172.0816,        9.820832,        172.0438
       9.829166,        171.9962,          9.8375,        171.9578,        9.845834,        171.9116,        9.854168,        171.8734
         9.8625,         171.827,        9.870834,        171.7865,        9.879166,        171.7496,          9.8875,        171.7052
       9.895832,        171.6608,        9.904166,        171.6155,          9.9125,        171.5747,        9.920834,        171.5391
       9.929168,        171.4988,          9.9375,        171.4489,        9.945832,        171.4138,        9.954166,        171.3668
         9.9625,        171.3294,        9.970834,        171.2865,        9.979168,        171.2442,          9.9875,        171.2031
       9.995834,        171.1606,        10.00417,        171.1161,         10.0125,        171.0791,        10.02083,        171.0371
       10.02917,        170.9939,         10.0375,        170.9543,        10.04583,        170.9053,        10.05417,        170.8682
        10.0625,        170.8268,        10.07083,        170.7847,        10.07917,        170.7469,         10.0875,        170.7006
       10.09583,        170.6625,        10.10417,         170.621,         10.1125,        170.5762,        10.12083,        170.5386
       10.12917,        170.4967,         10.1375,        170.4548,        10.14583,        170.4113,        10.15417,        170.3712
        10.1625,        170.3276,        10.17083,        170.2874,        10.17917,        170.2465,         10.1875,        170.2072
       10.19583,        170.1577,        10.20417,        170.1214,         10.2125,        170.0777,        10.22083,        170.0341
       10.22917,        169.9946,         10.2375,        169.9522,        10.24583,        169.9104,        10.25417,        169.8614
        10.2625,        169.8249,        10.27083,        169.7895,        10.27917,        169.7473,         10.2875,        169.7075
       10.29583,        169.6556,        10.30417,        169.6155,         10.3125,        169.5759,        10.32083,        169.5394
       10.32917,        169.4919,         10.3375,        169.4546,        10.34583,        169.4122,        10.35417,        169.3722
        10.3625,        169.3316,        10.37083,        169.2894,        10.37917,        169.2468,         10.3875,        169.2071
       10.39583,        169.1627,        10.40417,          169.12,         10.4125,        169.0816,        10.42083,        169.0378
       10.42917,        168.9943,         10.4375,        168.9529,        10.44583,        168.9154,        10.45417,        168.8733
        10.4625,        168.8319,        10.47083,        168.7901,        10.47917,        168.7449,         10.4875,        168.7049
       10.49584,        168.6658,        10.50416,         168.623,         10.5125,        168.5811,        10.52083,        168.5388
       10.52916,        168.4929,         10.5375,        168.4523,        10.54584,        168.4136,        10.55417,        168.3721
        10.5625,        168.3308,        10.57083,        168.2894,        10.57916,        168.2426,         10.5875,        168.2049
       10.59584,        168.1622,        10.60417,        168.1153,         10.6125,        168.0735,        10.62084,        168.0353
       10.62916,        167.9859,         10.6375,        167.9502,        10.64583,        167.9076,        10.65416,        167.8688
        10.6625,        167.8261,        10.67084,        167.7877,        10.67917,        167.7424,         10.6875,        167.7024
       10.69583,        167.6638,        10.70416,        167.6164,         10.7125,        167.5781,        10.72084,        167.5371
       10.72917,        167.4977,         10.7375,        167.4514,        10.74584,        167.4106,        10.75416,          167.37
        10.7625,        167.3274,        10.77083,        167.2834,        10.77916,        167.2458,         10.7875,        167.2028
       10.79584,         167.161,        10.80417,        167.1171,         10.8125,        167.0706,        10.82083,        167.0338
       10.82916,        166.9918,         10.8375,        166.9503,        10.84584,        166.9073,        10.85417,        166.8646
        10.8625,         166.825,        10.87084,        166.7749,        10.87916,        166.7408,         10.8875,        166.6986
       10.89583,        166.6576,        10.90416,        166.6117,         10.9125,        166.5745,        10.92084,        166.5332
       10.92917,        166.4875,         10.9375,        166.4484,        10.94583,         166.406,        10.95416,        166.3637
        10.9625,        166.3216,        10.97084,        166.2767,        10.97917,        166.2414,         10.9875,        166.1936
       10.99584,        166.1546,        11.00416,        166.1158,         11.0125,        166.0758,        11.02083,        166.0315
       11.02916,        165.9887,         11.0375,        165.9495,        11.04584,        165.9068,        11.05417,        165.8694
        11.0625,        165.8219,        11.07083,        165.7797,        11.07916,        165.7409,         11.0875,        165.6973
       11.09584,        165.6602,        11.10417,        165.6166,         11.1125,        165.5775,        11.12084,        165.5355
       11.12916,        165.4931,         11.1375,        165.4516,        11.14583,        165.4064,        11.15416,        165.3686
        11.1625,        165.3267,        11.17084,        165.2853,        11.17917,        165.2432,         11.1875,        165.2027
       11.19583,         165.161,        11.20416,        165.1211,         11.2125,        165.0738,        11.22084,        165.0279
       11.22917,         164.991,         11.2375,        164.9454,        11.24584,        164.9081,        11.25416,        164.8688
        11.2625,        164.8222,        11.27083,        164.7814,        11.27916,        164.7392,         11.2875,        164.7015
       11.29584,        164.6592,        11.30417,          164.61,         11.3125,        164.5735,        11.32083,        164.5358
       11.32916,        164.4922,         11.3375,        164.4542,        11.34584,        164.4075,        11.35417,        164.3701
        11.3625,        164.3273,        11.37084,        164.2839,        11.37916,         164.242,         11.3875,        164.1975
       11.39583,         164.158,        11.40416,        164.1175,         11.4125,        164.0769,        11.42084,        164.0364
       11.42917,        163.9914,         11.4375,        163.9537,        11.44583,        163.9115,        11.45416,        163.8706
        11.4625,        163.8276,        11.47084,        163.7859,        11.47917,        163.7433,         11.4875,        163.7008
       11.49584,        163.6603,        11.50416,        163.6174,         11.5125,        163.5774,        11.52083,        163.5322
       11.52916,        163.4927,         11.5375,         163.454,        11.54584,        163.4063,        11.55417,        163.3683
        11.5625,        163.3196,        11.57083,        163.2759,        11.57916,        163.2406,         11.5875,         163.201
       11.59584,        163.1604,        11.60417,        163.1156,         11.6125,        163.0746,        11.62084,        163.0298
       11.62916,        162.9893,         11.6375,        162.9512,        11.64583,        162.9061,        11.65416,         162.868
        11.6625,        162.8274,        11.67084,        162.7824,        11.67917,        162.7396,         11.6875,        162.6984
       11.69583,        162.6578,        11.70416,        162.6157,         11.7125,        162.5742,        11.72084,        162.5332
       11.72917,        162.4927,         11.7375,         162.449,        11.74584,        162.4083,        11.75416,        162.3657
        11.7625,        162.3237,        11.77083,        162.2812,        11.77916,        162.2412,         11.7875,        162.1946
       11.79584,        162.1515,        11.80417,        162.1161,         11.8125,        162.0706,        11.82083,        162.0325
       11.82916,        161.9878,         11.8375,        161.9465,        11.84584,        161.9063,        11.85417,        161.8645
        11.8625,        161.8252,        11.87084,        161.7792,        11.87916,        161.7412,         11.8875,        161.6982
       11.89583,        161.6522,        11.90416,        161.6114,         11.9125,        161.5728,        11.92084,        161.5287
       11.92917,        161.4907,         11.9375,        161.4461,        11.94583,        161.4089,        11.95416,        161.3664
        11.9625,        161.3254,        11.97084,        161.2826,        11.97917,        161.2384,         11.9875,        161.1989
       11.99584,         161.158,        12.00416,        161.1151,         12.0125,        161.0699,        12.02083,        161.0314
       12.02916,          160.99,         12.0375,        160.9486,        12.04584,        160.9088,        12.05417,        160.8626
        12.0625,         160.819,        12.07083,        160.7813,        12.07916,         160.739,         12.0875,        160.6976
       12.09584,        160.6549,        12.10417,        160.6139,         12.1125,        160.5721,        12.12084,        160.5282
       12.12916,        160.4898,         12.1375,        160.4478,        12.14583,        160.4037,        12.15416,        160.3614
        12.1625,        160.3202,        12.17084,        160.2756,        12.17917,         160.238,         12.1875,        160.1939
       12.19583,        160.1552,        12.20416,        160.1091,         12.2125,        160.0736,        12.22084,        160.0306
       12.22917,        159.9862,         12.2375,        159.9451,        12.24584,        159.9039,        12.25416,        159.8652
        12.2625,        159.8206,        12.27083,        159.7803,        12.27916,        159.7383,         12.2875,        159.6941
       12.29584,        159.6524,        12.30417,        159.6125,         12.3125,        159.5639,        12.32083,        159.5254
       12.32916,        159.4878,         12.3375,          159.44,        12.34584,        159.4024,        12.35417,        159.3644
        12.3625,        159.3228,        12.37084,        159.2809,        12.37916,        159.2415,         12.3875,        159.2015
       12.39583,        159.1572,        12.40416,        159.1156,         12.4125,        159.0759,        12.42084,         159.033
       12.42917,        158.9901,         12.4375,        158.9525,        12.44583,        158.9067,        12.45416,        158.8672
        12.4625,        158.8224,        12.47084,        158.7822,        12.47917,        158.7415,         12.4875,        158.6989
       12.49584,        158.6578,        12.50416,        158.6171,         12.5125,        158.5727,        12.52083,        158.5304
       12.52916,        158.4867,         12.5375,        158.4512,        12.54584,        158.4058,        12.55417,        158.3642
        12.5625,        158.3231,        12.57083,        158.2807,        12.57916,        158.2375,         12.5875,         158.198
       12.59584,        158.1565,        12.60417,        158.1161,         12.6125,        158.0751,        12.62084,         158.031
       12.62916,          157.99,         12.6375,        157.9498,        12.64583,        157.9041,        12.65416,         157.864
        12.6625,        157.8243,        12.67084,        157.7768,        12.67917,        157.7391,         12.6875,        157.6989
       12.69583,        157.6552,        12.70416,        157.6151,         12.7125,        157.5691,        12.72084,        157.5286
       12.72917,         157.487,         12.7375,        157.4468,        12.74584,        157.4037,        12.75416,        157.3615
        12.7625,        157.3191,        12.77083,        157.2712,        12.77916,        157.2324,         12.7875,        157.1926
       12.79584,        157.1522,        12.80417,        157.1085,         12.8125,        157.0661,        12.82083,        157.0246
       12.82916,        156.9814,         12.8375,        156.9425,        12.84584,         156.902,        12.85417,        156.8583
        12.8625,        156.8154,        12.87083,        156.7761,        12.87917,        156.7372,         12.8875,        156.6954
       12.89583,        156.6482,        12.90416,         156.611,         12.9125,        156.5668,        12.92084,        156.5256
       12.92917,        156.4796,         12.9375,        156.4448,        12.94583,        156.4015,        12.95416,        156.3633
        12.9625,         156.323,        12.97084,        156.2778,        12.97917,        156.2308,         12.9875,        156.1956
       12.99583,        156.1553,        13.00417,        156.1147,         13.0125,        156.0726,        13.02083,          156.03
       13.02916,        155.9901,         13.0375,        155.9465,        13.04584,        155.9068,        13.05417,        155.8648
        13.0625,        155.8238,        13.07083,        155.7786,        13.07916,        155.7392,         13.0875,        155.6993
       13.09584,        155.6557,        13.10417,        155.6142,         13.1125,        155.5699,        13.12083,         155.532
       13.12917,        155.4898,         13.1375,        155.4492,        13.14583,        155.4058,        13.15416,        155.3617
        13.1625,        155.3219,        13.17084,        155.2789,        13.17917,        155.2387,         13.1875,        155.1954
       13.19583,        155.1492,        13.20416,        155.1124,         13.2125,        155.0698,        13.22084,        155.0208
       13.22917,        154.9877,         13.2375,        154.9476,        13.24583,        154.9054,        13.25417,        154.8629
        13.2625,        154.8218,        13.27083,         154.776,        13.27916,        154.7322,         13.2875,        154.6953
       13.29584,        154.6538,        13.30417,        154.6145,         13.3125,        154.5739,        13.32083,        154.5255
       13.32916,        154.4873,         13.3375,        154.4462,        13.34584,        154.4054,        13.35417,        154.3613
        13.3625,        154.3227,        13.37083,         154.275,        13.37917,        154.2383,         13.3875,        154.1975
       13.39583,        154.1554,        13.40416,         154.113,         13.4125,        154.0736,        13.42084,         154.029
       13.42917,        153.9894,         13.4375,        153.9463,        13.44583,        153.9035,        13.45416,        153.8579
        13.4625,        153.8202,        13.47084,        153.7791,        13.47917,         153.737,         13.4875,        153.6948
       13.49583,        153.6547,        13.50417,        153.6108,         13.5125,        153.5703,        13.52083,        153.5265
       13.52916,        153.4839,         13.5375,         153.444,        13.54584,        153.4019,        13.55417,        153.3584
        13.5625,        153.3163,        13.57083,         153.274,        13.57916,        153.2346,         13.5875,        153.1952
       13.59584,        153.1473,        13.60417,        153.1059,         13.6125,        153.0673,        13.62083,        153.0229
       13.62917,         152.983,         13.6375,        152.9417,        13.64583,        152.8972,        13.65416,        152.8554
        13.6625,        152.8157,        13.67084,        152.7754,        13.67917,         152.731,         13.6875,        152.6882
       13.69583,        152.6441,        13.70416,         152.603,         13.7125,        152.5658,        13.72084,        152.5242
       13.72917,        152.4836,         13.7375,        152.4391,        13.74583,        152.3988,        13.75417,        152.3556
        13.7625,        152.3155,        13.77083,        152.2741,        13.77916,        152.2349,         13.7875,        152.1913
       13.79584,        152.1464,        13.80417,        152.1065,         13.8125,        152.0626,        13.82083,        152.0247
       13.82916,         151.984,         13.8375,        151.9441,        13.84584,        151.9005,        13.85417,        151.8591
        13.8625,        151.8171,        13.87083,        151.7769,        13.87917,        151.7341,         13.8875,        151.6904
       13.89583,        151.6472,        13.90416,        151.6075,         13.9125,        151.5684,        13.92084,        151.5248
       13.92917,        151.4803,         13.9375,        151.4418,        13.94583,        151.4002,        13.95416,        151.3588
        13.9625,        151.3192,        13.97084,         151.279,        13.97917,        151.2306,         13.9875,        151.1912
       13.99583,        151.1524,        14.00417,        151.1099,         14.0125,        151.0675,        14.02083,        151.0285
       14.02916,        150.9872,         14.0375,        150.9439,        14.04584,        150.9053,        14.05417,        150.8635
        14.0625,        150.8217,        14.07083,        150.7764,        14.07916,        150.7386,         14.0875,        150.6974
       14.09584,        150.6549,        14.10417,        150.6119,         14.1125,        150.5714,        14.12083,        150.5294
       14.12917,        150.4897,         14.1375,         150.448,        14.14583,        150.4067,        14.15416,        150.3638
        14.1625,        150.3217,        14.17084,        150.2806,        14.17917,        150.2381,         14.1875,        150.1949
       14.19583,        150.1551,        14.20416,        150.1132,         14.2125,        150.0714,        14.22084,        150.0298
       14.22917,        149.9841,         14.2375,        149.9453,        14.24583,        149.9014,        14.25417,        149.8618
        14.2625,        149.8181,        14.27083,        149.7787,        14.27916,        149.7361,         14.2875,        149.6936
       14.29584,        149.6546,        14.30417,        149.6104,         14.3125,        149.5667,        14.32083,        149.5243
       14.32916,        149.4853,         14.3375,        149.4437,        14.34584,        149.4036,        14.35417,        149.3608
        14.3625,        149.3208,        14.37083,        149.2759,        14.37917,        149.2355,         14.3875,        149.1953
       14.39583,        149.1527,        14.40416,        149.1099,         14.4125,        149.0681,        14.42084,        149.0282
       14.42917,        148.9868,         14.4375,        148.9461,        14.44583,        148.9036,        14.45416,        148.8566
        14.4625,        148.8206,        14.47084,        148.7788,        14.47917,        148.7368,         14.4875,        148.6966
       14.49583,        148.6564,        14.50417,        148.6127,         14.5125,         148.575,        14.52083,        148.5292
       14.52916,        148.4885,         14.5375,        148.4469,        14.54584,        148.4011,        14.55417,        148.3613
        14.5625,        148.3222,        14.57083,        148.2811,        14.57916,         148.237,         14.5875,        148.1954
       14.59584,        148.1558,        14.60417,        148.1104,         14.6125,        148.0728,        14.62083,        148.0314
       14.62917,        147.9903,         14.6375,        147.9438,        14.64583,        147.9051,        14.65416,        147.8634
        14.6625,        147.8223,        14.67084,        147.7817,        14.67917,        147.7386,         14.6875,        147.6984
       14.69583,        147.6558,        14.70416,        147.6143,         14.7125,        147.5698,        14.72084,        147.5309
       14.72917,        147.4894,         14.7375,        147.4468,        14.74583,        147.4069,        14.75417,        147.3651
        14.7625,        147.3233,        14.77083,        147.2809,        14.77916,        147.2395,         14.7875,        147.1971
       14.79584,        147.1548,        14.80417,         147.113,         14.8125,         147.072,        14.82083,        147.0299
       14.82916,        146.9883,         14.8375,        146.9449,        14.84584,        146.9034,        14.85417,        146.8593
        14.8625,        146.8161,        14.87083,        146.7771,        14.87917,        146.7346,         14.8875,         146.691
       14.89583,        146.6518,        14.90416,         146.608,         14.9125,         146.566,        14.92084,        146.5238
       14.92917,         146.483,         14.9375,        146.4403,        14.94583,        146.3994,        14.95416,         146.357
        14.9625,        146.3155,        14.97084,         146.275,        14.97917,        146.2334,         14.9875,        146.1882
       14.99583,        146.1454,        15.00417,        146.1062,         15.0125,        146.0652,        15.02083,        146.0149
       15.02916,        145.9813,         15.0375,        145.9386,        15.04584,        145.8966,        15.05417,        145.8564
        15.0625,        145.8146,        15.07083,        145.7724,        15.07916,        145.7316,         15.0875,        145.6887
       15.09584,        145.6489,        15.10417,        145.6035,         15.1125,        145.5656,        15.12083,        145.5251
       15.12917,        145.4802,         15.1375,         145.442,        15.14583,        145.4004,        15.15416,        145.3576
        15.1625,        145.3147,        15.17084,        145.2724,        15.17917,        145.2329,         15.1875,        145.1918
       15.19583,        145.1487,        15.20416,        145.1061,         15.2125,        145.0666,        15.22084,        145.0237
       15.22917,        144.9796,         15.2375,        144.9436,        15.24583,        144.9003,        15.25417,        144.8595
        15.2625,        144.8181,        15.27083,        144.7784,        15.27916,        144.7319,         15.2875,        144.6932
       15.29584,        144.6535,        15.30417,        144.6112,         15.3125,        144.5688,        15.32083,        144.5265
       15.32916,        144.4868,         15.3375,        144.4438,        15.34584,        144.4041,        15.35417,        144.3613
        15.3625,         144.322,        15.37083,        144.2797,        15.37917,        144.2386,         15.3875,        144.1991
       15.39583,        144.1567,        15.40416,        144.1139,         15.4125,        144.0734,        15.42084,        144.0334
       15.42917,        143.9906,         15.4375,        143.9482,        15.44583,        143.9082,        15.45416,        143.8672
        15.4625,        143.8218,        15.47084,        143.7818,        15.47917,        143.7414,         15.4875,        143.6993
       15.49583,        143.6581,        15.50417,        143.6154,         15.5125,        143.5751,        15.52083,        143.5334
       15.52916,        143.4894,         15.5375,        143.4443,        15.54584,        143.4078,        15.55417,        143.3631
        15.5625,        143.3256,        15.57083,        143.2793,        15.57916,        143.2422,         15.5875,         143.201
       15.59584,        143.1604,        15.60417,        143.1167,         15.6125,        143.0766,        15.62083,        143.0351
       15.62917,        142.9949,         15.6375,        142.9498,        15.64583,         142.911,        15.65416,        142.8662
        15.6625,        142.8273,        15.67084,        142.7837,        15.67917,        142.7425,         15.6875,        142.6991
       15.69583,        142.6594,        15.70416,        142.6165,         15.7125,        142.5752,        15.72084,        142.5301
       15.72917,        142.4928,         15.7375,        142.4497,        15.74583,        142.4089,        15.75417,        142.3678
        15.7625,        142.3248,        15.77083,        142.2849,        15.77916,        142.2422,         15.7875,        142.1953
       15.79584,        142.1586,        15.80417,        142.1174,         15.8125,        142.0741,        15.82083,        142.0334
       15.82916,        141.9918,         15.8375,        141.9489,        15.84584,        141.9089,        15.85417,        141.8648
        15.8625,        141.8245,        15.87083,        141.7836,        15.87917,        141.7411,         15.8875,        141.7004
       15.89583,        141.6575,        15.90416,        141.6168,         15.9125,        141.5747,        15.92084,        141.5326
       15.92917,         141.488,         15.9375,        141.4498,        15.94583,         141.404,        15.95416,        141.3654
        15.9625,        141.3211,        15.97084,        141.2821,        15.97917,        141.2397,         15.9875,        141.1979
       15.99583,        141.1566,        16.00417,        141.1146,         16.0125,        141.0709,        16.02084,        141.0315
       16.02917,        140.9902,         16.0375,        140.9472,        16.04584,        140.9058,        16.05417,        140.8626
        16.0625,        140.8188,        16.07083,        140.7799,        16.07916,        140.7352,         16.0875,        140.6961
       16.09583,        140.6544,        16.10416,        140.6106,         16.1125,        140.5708,        16.12083,        140.5259
       16.12917,        140.4816,         16.1375,        140.4447,        16.14584,        140.4037,        16.15417,        140.3616
        16.1625,        140.3206,        16.17084,        140.2804,        16.17917,        140.2356,         16.1875,        140.1939
       16.19583,        140.1529,        16.20416,        140.1094,         16.2125,        140.0684,        16.22083,        140.0242
       16.22916,        139.9847,         16.2375,        139.9453,        16.24583,        139.9034,        16.25417,        139.8612
        16.2625,        139.8178,        16.27084,         139.777,        16.27917,         139.736,         16.2875,        139.6949
       16.29584,        139.6519,        16.30417,        139.6055,         16.3125,         139.568,        16.32083,        139.5265
       16.32916,         139.485,         16.3375,        139.4422,        16.34583,        139.4017,        16.35416,        139.3585
        16.3625,        139.3172,        16.37083,        139.2771,        16.37917,        139.2329,         16.3875,        139.1921
       16.39584,        139.1495,        16.40417,        139.1094,         16.4125,         139.067,        16.42084,        139.0237
       16.42917,         138.983,         16.4375,        138.9428,        16.44583,        138.9005,        16.45416,        138.8598
        16.4625,        138.8144,        16.47083,        138.7751,        16.47916,        138.7322,         16.4875,         138.692
       16.49583,        138.6488,        16.50417,         138.609,         16.5125,        138.5671,        16.52084,        138.5255
       16.52917,        138.4838,         16.5375,        138.4395,        16.54584,         138.399,        16.55417,        138.3597
        16.5625,        138.3155,        16.57083,        138.2736,        16.57916,        138.2341,         16.5875,        138.1925
       16.59583,        138.1502,        16.60416,          138.11,         16.6125,        138.0692,        16.62083,        138.0268
       16.62917,        137.9861,         16.6375,        137.9438,        16.64584,        137.9016,        16.65417,         137.857
        16.6625,        137.8199,        16.67084,        137.7781,        16.67917,        137.7361,         16.6875,        137.6946
       16.69583,         137.653,        16.70416,        137.6096,         16.7125,        137.5692,        16.72083,        137.5273
       16.72916,        137.4848,         16.7375,         137.444,        16.74583,        137.4032,        16.75417,        137.3622
        16.7625,        137.3198,        16.77084,        137.2788,        16.77917,         137.237,         16.7875,        137.1951
       16.79584,        137.1528,        16.80417,        137.1104,         16.8125,        137.0684,        16.82083,        137.0284
       16.82916,        136.9838,         16.8375,        136.9434,        16.84583,        136.9012,        16.85416,        136.8603
        16.8625,        136.8181,        16.87083,        136.7765,        16.87917,        136.7346,         16.8875,        136.6936
       16.89584,        136.6522,        16.90417,        136.6086,         16.9125,        136.5674,        16.92084,        136.5254
       16.92917,        136.4846,         16.9375,        136.4405,        16.94583,        136.3999,        16.95416,        136.3594
        16.9625,        136.3178,        16.97083,        136.2736,        16.97916,         136.233,         16.9875,        136.1882
       16.99583,         136.149,        17.00417,         136.108,         17.0125,        136.0651,        17.02084,        136.0246
       17.02917,        135.9827,         17.0375,         135.941,        17.04584,         135.899,        17.05417,        135.8579
        17.0625,        135.8152,        17.07083,        135.7736,        17.07916,        135.7322,         17.0875,        135.6898
       17.09583,        135.6486,        17.10416,         135.607,         17.1125,        135.5644,        17.12083,        135.5206
       17.12917,        135.4796,         17.1375,        135.4393,        17.14584,        135.3983,        17.15417,        135.3558
        17.1625,         135.314,        17.17084,        135.2728,        17.17917,        135.2305,         17.1875,        135.1885
       17.19583,        135.1467,        17.20416,        135.1041,         17.2125,        135.0622,        17.22083,        135.0219
       17.22916,         134.979,         17.2375,        134.9381,        17.24583,        134.8966,        17.25417,        134.8544
        17.2625,         134.813,        17.27084,          134.77,        17.27917,        134.7294,         17.2875,        134.6866
       17.29584,         134.645,        17.30417,        134.6039,         17.3125,        134.5617,        17.32083,        134.5206
       17.32916,        134.4778,         17.3375,        134.4378,        17.34583,        134.3955,        17.35416,        134.3537
        17.3625,         134.312,        17.37083,        134.2701,        17.37917,        134.2285,         17.3875,        134.1869
       17.39584,        134.1442,        17.40417,        134.1025,         17.4125,        134.0593,        17.42084,        134.0191
       17.42917,        133.9788,         17.4375,        133.9385,        17.44583,        133.8967,        17.45416,         133.855
        17.4625,        133.8136,        17.47083,        133.7715,        17.47916,        133.7302,         17.4875,        133.6883
       17.49583,        133.6459,        17.50417,        133.6048,         17.5125,        133.5627,        17.52084,        133.5223
       17.52917,        133.4812,         17.5375,        133.4399,        17.54584,        133.3948,        17.55417,        133.3566
        17.5625,        133.3156,        17.57083,        133.2739,        17.57916,        133.2326,         17.5875,        133.1908
       17.59583,        133.1488,        17.60416,        133.1076,         17.6125,        133.0666,        17.62083,        133.0255
       17.62917,        132.9837,         17.6375,        132.9429,        17.64584,        132.9012,        17.65417,        132.8598
        17.6625,         132.818,        17.67084,        132.7774,        17.67917,        132.7353,         17.6875,        132.6944
       17.69583,        132.6532,        17.70416,        132.6119,         17.7125,        132.5707,        17.72083,        132.5289
       17.72916,        132.4861,         17.7375,        132.4453,        17.74583,        132.4042,        17.75417,        132.3622
        17.7625,        132.3216,        17.77084,        132.2792,        17.77917,        132.2376,         17.7875,        132.1965
       17.79584,         132.154,        17.80417,        132.1122,         17.8125,         132.071,        17.82083,        132.0292
       17.82916,        131.9875,         17.8375,        131.9461,        17.84583,        131.9042,        17.85416,        131.8622
        17.8625,        131.8205,        17.87083,        131.7796,        17.87917,        131.7353,         17.8875,         131.695
       17.89584,        131.6535,        17.90417,        131.6114,         17.9125,        131.5708,        17.92084,        131.5287
       17.92917,         131.487,         17.9375,         131.445,        17.94583,        131.4042,        17.95416,        131.3612
        17.9625,        131.3217,        17.97083,        131.2791,        17.97916,         131.238,         17.9875,        131.1965
       17.99583,        131.1554,        18.00417,        131.1138,         18.0125,        131.0712,        18.02084,          131.03
       18.02917,        130.9884,         18.0375,        130.9465,        18.04584,        130.9034,        18.05417,         130.863
        18.0625,        130.8218,        18.07083,        130.7797,        18.07916,        130.7384,         18.0875,        130.6968
       18.09583,        130.6544,        18.10416,        130.6135,         18.1125,        130.5717,        18.12083,        130.5305
       18.12917,        130.4886,         18.1375,         130.447,        18.14584,        130.4055,        18.15417,        130.3638
        18.1625,        130.3222,        18.17084,        130.2807,        18.17917,        130.2389,         18.1875,        130.1967
       18.19583,         130.155,        18.20416,        130.1138,         18.2125,        130.0708,        18.22083,        130.0312
       18.22916,        129.9894,         18.2375,        129.9476,        18.24583,        129.9063,        18.25417,        129.8646
        18.2625,        129.8227,        18.27084,        129.7825,        18.27917,        129.7386,         18.2875,        129.6994
       18.29584,        129.6571,        18.30417,         129.616,         18.3125,        129.5744,        18.32083,         129.533
       18.32916,        129.4918,         18.3375,        129.4503,        18.34583,        129.4091,        18.35416,        129.3675
        18.3625,        129.3266,        18.37083,        129.2854,        18.37917,        129.2438,         18.3875,        129.2024
       18.39584,        129.1603,        18.40417,        129.1199,         18.4125,        129.0783,        18.42084,        129.0375
       18.42917,        128.9955,         18.4375,        128.9538,        18.44583,        128.9124,        18.45416,        128.8716
        18.4625,        128.8304,        18.47083,        128.7889,        18.47916,        128.7483,         18.4875,        128.7058
       18.49583,        128.6657,        18.50417,        128.6239,         18.5125,        128.5828,        18.52084,        128.5423
       18.52917,        128.5005,         18.5375,         128.459,        18.54584,        128.4184,        18.55417,        128.3777
        18.5625,        128.3353,        18.57083,        128.2952,        18.57916,        128.2538,         18.5875,        128.2128
       18.59583,        128.1722,        18.60416,        128.1299,         18.6125,        128.0899,        18.62083,        128.0486
       18.62917,        128.0081,         18.6375,        127.9668,        18.64584,         127.926,        18.65417,        127.8844
        18.6625,        127.8434,        18.67084,        127.8034,        18.67917,        127.7616,         18.6875,        127.7213
       18.69583,        127.6807,        18.70416,        127.6392,         18.7125,         127.599,        18.72083,        127.5575
       18.72916,        127.5165,         18.7375,        127.4753,        18.74583,        127.4346,        18.75417,        127.3939
        18.7625,        127.3525,        18.77084,        127.3114,        18.77917,        127.2709,         18.7875,        127.2304
       18.79584,        127.1893,        18.80417,        127.1484,         18.8125,        127.1084,        18.82083,        127.0671
       18.82916,        127.0262,         18.8375,        126.9855,        18.84583,        126.9443,        18.85416,        126.9044
        18.8625,         126.864,        18.87083,        126.8229,        18.87917,        126.7815,         18.8875,        126.7416
       18.89584,        126.7007,        18.90417,        126.6598,         18.9125,        126.6194,        18.92084,        126.5794
       18.92917,         126.538,         18.9375,        126.4987,        18.94583,        126.4568,        18.95416,         126.416
        18.9625,         126.375,        18.97083,        126.3354,        18.97916,         126.295,         18.9875,        126.2547
       18.99583,        126.2138,        19.00417,        126.1728,         19.0125,         126.133,        19.02084,        126.0925
       19.02917,        126.0519,         19.0375,        126.0118,        19.04584,        125.9719,        19.05417,          125.93
        19.0625,        125.8895,        19.07083,        125.8492,        19.07916,        125.8095,         19.0875,        125.7697
       19.09583,        125.7295,        19.10416,        125.6889,         19.1125,        125.6486,        19.12083,        125.6078
       19.12917,         125.568,         19.1375,        125.5282,        19.14584,        125.4873,        19.15417,        125.4478
        19.1625,        125.4072,        19.17084,        125.3672,        19.17917,        125.3266,         19.1875,        125.2869
       19.19583,        125.2468,        19.20416,         125.207,         19.2125,        125.1668,        19.22083,        125.1273
       19.22916,        125.0874,         19.2375,        125.0477,        19.24583,        125.0077,        19.25417,        124.9679
        19.2625,         124.928,        19.27084,        124.8882,        19.27917,        124.8471,         19.2875,        124.8084
       19.29584,         124.768,        19.30417,        124.7277,         19.3125,        124.6887,        19.32083,        124.6486
       19.32916,        124.6084,         19.3375,        124.5693,        19.34583,        124.5299,        19.35416,          124.49
        19.3625,        124.4504,        19.37083,        124.4099,        19.37917,        124.3707,         19.3875,        124.3316
       19.39584,        124.2921,        19.40417,        124.2526,         19.4125,        124.2123,        19.42084,        124.1733
       19.42917,         124.134,         19.4375,         124.094,        19.44583,        124.0548,        19.45416,        124.0155
        19.4625,        123.9751,        19.47083,        123.9363,        19.47916,        123.8963,         19.4875,        123.8581
       19.49583,        123.8179,        19.50417,         123.779,         19.5125,        123.7401,        19.52084,        123.6997
       19.52917,        123.6612,         19.5375,        123.6217,        19.54584,        123.5825,        19.55417,        123.5435
        19.5625,         123.504,        19.57083,         123.465,        19.57916,        123.4257,         19.5875,        123.3867
       19.59583,        123.3476,        19.60416,        123.3075,         19.6125,        123.2697,        19.62083,        123.2301
       19.62917,        123.1909,         19.6375,        123.1521,        19.64584,        123.1128,        19.65417,        123.0741
        19.6625,        123.0351,        19.67084,        122.9963,        19.67917,        122.9566,         19.6875,        122.9184
       19.69583,        122.8797,        19.70416,         122.841,         19.7125,         122.802,        19.72083,        122.7634
       19.72916,        122.7241,         19.7375,        122.6856,        19.74583,        122.6465,        19.75417,        122.6081
        19.7625,        122.5694,        19.77084,        122.5299,        19.77917,        122.4909,         19.7875,        122.4527
       19.79584,        122.4136,        19.80417,        122.3745,         19.8125,        122.3366,        19.82083,         122.298
       19.82916,        122.2593,         19.8375,        122.2206,        19.84583,        122.1823,        19.85416,        122.1434
        19.8625,        122.1053,        19.87083,        122.0662,        19.87917,        122.0275,         19.8875,         121.989
       19.89584,        121.9507,        19.90417,        121.9125,         19.9125,        121.8743,        19.92084,        121.8356
       19.92917,        121.7969,         19.9375,        121.7584,        19.94583,        121.7203,        19.95416,        121.6824
        19.9625,        121.6438,        19.97083,        121.6055,        19.97916,        121.5673,         19.9875,        121.5287
       19.99583,        121.4907,        20.00417,         121.452,         20.0125,        121.4142,        20.02084,        121.3758
       20.02917,        121.3378,         20.0375,        121.2995,        20.04584,         121.262,        20.05417,        121.2232
        20.0625,        121.1857,        20.07083,        121.1476,        20.07916,        121.1096,         20.0875,        121.0712
       20.09583,         121.034,        20.10416,         120.996,         20.1125,        120.9576,        20.12083,        120.9193
       20.12917,        120.8814,         20.1375,        120.8439,        20.14584,        120.8053,        20.15417,        120.7674
        20.1625,        120.7298,        20.17084,        120.6914,        20.17917,         120.654,         20.1875,        120.6155
       20.19583,        120.5781,        20.20416,        120.5406,         20.2125,        120.5032,        20.22083,        120.4651
       20.22916,        120.4273,         20.2375,        120.3898,        20.24583,        120.3522,        20.25417,        120.3143
        20.2625,         120.277,        20.27084,        120.2391,        20.27917,        120.2013,         20.2875,        120.1641
       20.29584,        120.1263,        20.30417,        120.0884,         20.3125,        120.0509,        20.32083,         120.014
       20.32916,        119.9758,         20.3375,        119.9383,        20.34583,        119.9019,        20.35416,         119.864
        20.3625,        119.8258,        20.37083,         119.789,        20.37917,        119.7513,         20.3875,         119.714
       20.39584,        119.6774,        20.40417,        119.6392,         20.4125,        119.6027,        20.42084,        119.5645
       20.42917,        119.5276,         20.4375,        119.4904,        20.44583,        119.4528,        20.45416,        119.4153
        20.4625,        119.3789,        20.47083,        119.3409,        20.47916,        119.3044,         20.4875,        119.2679
       20.49583,        119.2304,        20.50417,        119.1931,         20.5125,        119.1559,        20.52084,        119.1193
       20.52917,        119.0821,         20.5375,        119.0458,        20.54584,        119.0089,        20.55417,         118.972
        20.5625,        118.9348,        20.57083,        118.8976,        20.57916,        118.8618,         20.5875,        118.8242
       20.59583,        118.7868,        20.60416,        118.7509,         20.6125,        118.7141,        20.62083,        118.6769
       20.62917,        118.6401,         20.6375,        118.6027,        20.64584,        118.5666,        20.65417,        118.5302
        20.6625,        118.4931,        20.67084,         118.456,        20.67917,        118.4199,         20.6875,         118.384
       20.69583,        118.3461,        20.70416,        118.3091,         20.7125,        118.2729,        20.72083,        118.2364
       20.72916,        118.1988,         20.7375,        118.1629,        20.74583,        118.1252,        20.75417,        118.0902
        20.7625,        118.0537,        20.77084,        118.0175,        20.77917,        117.9803,         20.7875,        117.9441
       20.79584,        117.9084,        20.80417,         117.872,         20.8125,        117.8354,        20.82083,        117.7988
       20.82916,        117.7631,         20.8375,        117.7265,        20.84583,        117.6905,        20.85416,         117.654
        20.8625,        117.6184,        20.87083,         117.582,        20.87917,        117.5455,         20.8875,        117.5088
       20.89584,        117.4725,        20.90417,        117.4365,         20.9125,        117.4007,        20.92084,        117.3642
       20.92917,        117.3286,         20.9375,        117.2926,        20.94583,        117.2567,        20.95416,        117.2198
        20.9625,        117.1846,        20.97083,        117.1484,        20.97916,        117.1129,         20.9875,        117.0768
       20.99583,         117.041,        21.00417,        117.0049,         21.0125,        116.9694,        21.02084,        116.9341
       21.02917,        116.8979,         21.0375,        116.8625,        21.04584,        116.8264,        21.05417,        116.7916
        21.0625,        116.7555,        21.07083,        116.7193,        21.07916,         116.684,         21.0875,         116.648
       21.09583,         116.613,        21.10416,         116.577,         21.1125,        116.5414,        21.12083,        116.5055
       21.12917,        116.4701,         21.1375,        116.4341,        21.14584,        116.3994,        21.15417,         116.363
        21.1625,        116.3281,        21.17084,        116.2922,        21.17917,        116.2566,         21.1875,        116.2213
       21.19583,        116.1862,        21.20416,        116.1504,         21.2125,        116.1145,        21.22083,        116.0794
       21.22916,        116.0446,         21.2375,         116.009,        21.24583,        115.9736,        21.25417,        115.9377
        21.2625,        115.9026,        21.27084,        115.8674,        21.27917,        115.8324,         21.2875,        115.7967
       21.29584,        115.7621,        21.30417,        115.7267,         21.3125,        115.6908,        21.32083,         115.655
       21.32916,        115.6207,         21.3375,        115.5856,        21.34583,        115.5506,        21.35416,         115.515
        21.3625,        115.4795,        21.37083,        115.4444,        21.37917,        115.4091,         21.3875,        115.3746
       21.39584,        115.3387,        21.40417,        115.3041,         21.4125,        115.2697,        21.42084,        115.2346
       21.42917,        115.1993,         21.4375,        115.1637,        21.44583,        115.1295,        21.45416,        115.0943
        21.4625,        115.0597,        21.47083,        115.0248,        21.47916,        114.9898,         21.4875,        114.9544
       21.49583,        114.9196,        21.50417,        114.8846,         21.5125,        114.8508,        21.52084,        114.8152
       21.52917,        114.7802,         21.5375,        114.7454,        21.54584,        114.7105,        21.55417,        114.6755
        21.5625,        114.6413,        21.57083,        114.6057,        21.57916,        114.5712,         21.5875,        114.5361
       21.59583,        114.5019,        21.60416,        114.4673,         21.6125,        114.4321,        21.62083,        114.3972
       21.62917,        114.3622,         21.6375,        114.3271,        21.64584,        114.2934,        21.65417,        114.2582
        21.6625,        114.2228,        21.67084,        114.1878,        21.67917,        114.1528,         21.6875,        114.1178
       21.69583,         114.084,        21.70416,        114.0475,         21.7125,        114.0126,        21.72083,        113.9783
       21.72916,        113.9437,         21.7375,        113.9077,        21.74583,        113.8732,        21.75417,        113.8383
        21.7625,        113.8027,        21.77084,        113.7673,        21.77917,        113.7321,         21.7875,        113.6971
       21.79584,        113.6616,        21.80417,        113.6269,         21.8125,        113.5917,        21.82083,        113.5564
       21.82916,        113.5205,         21.8375,        113.4848,        21.84583,        113.4499,        21.85416,        113.4144
        21.8625,        113.3786,        21.87083,         113.342,        21.87917,        113.3069,         21.8875,        113.2697
       21.89584,        113.2338,        21.90417,        113.1973,         21.9125,        113.1607,        21.92084,        113.1241
       21.92917,        113.0871,         21.9375,        113.0504,        21.94583,        113.0124,        21.95416,        112.9759
        21.9625,        112.9379,        21.97083,        112.9009,        21.97916,        112.8635,         21.9875,         112.825
       21.99583,        112.7874,        22.00417,        112.7493,         22.0125,        112.7115,        22.02084,        112.6736
       22.02917,        112.6337,         22.0375,        112.5959,        22.04584,        112.5566,        22.05417,         112.518
        22.0625,        112.4787,        22.07083,         112.439,        22.07916,        112.3993,         22.0875,        112.3596
       22.09583,        112.3193,        22.10416,        112.2794,         22.1125,        112.2391,        22.12083,        112.1986
       22.12917,        112.1586,         22.1375,        112.1163,        22.14584,         112.075,        22.15417,        112.0339
        22.1625,        111.9933,        22.17084,        111.9514,        22.17917,        111.9097,         22.1875,         111.869
       22.19583,        111.8271,        22.20416,        111.7839,         22.2125,        111.7414,        22.22083,        111.6987
       22.22916,        111.6556,         22.2375,        111.6119,        22.24583,        111.5685,        22.25417,         111.524
        22.2625,        111.4796,        22.27084,        111.4346,        22.27917,         111.389,         22.2875,        111.3438
       22.29584,        111.2984,        22.30417,        111.2524,         22.3125,        111.2064,        22.32083,        111.1599
       22.32916,        111.1132,         22.3375,        111.0661,        22.34583,        111.0188,        22.35416,        110.9714
        22.3625,        110.9228,        22.37083,        110.8738,        22.37917,        110.8248,         22.3875,        110.7768
       22.39584,        110.7272,        22.40417,        110.6779,         22.4125,        110.6276,        22.42084,        110.5769
       22.42917,        110.5266,         22.4375,        110.4752,        22.44583,        110.4238,        22.45416,        110.3717
        22.4625,        110.3198,        22.47083,         110.267,        22.47916,        110.2137,         22.4875,        110.1607
       22.49583,         110.107,        22.50417,        110.0524,         22.5125,        109.9981,        22.52084,        109.9441
       22.52917,        109.8888,         22.5375,        109.8327,        22.54584,        109.7772,        22.55417,        109.7205
        22.5625,        109.6644,        22.57083,        109.6079,        22.57916,        109.5513,         22.5875,        109.4938
       22.59583,        109.4348,        22.60416,        109.3767,         22.6125,        109.3178,        22.62083,        109.2592
       22.62917,        109.1988,         22.6375,        109.1395,        22.64584,        109.0791,        22.65417,        109.0204
        22.6625,        108.9579,        22.67084,        108.8989,        22.67917,        108.8369,         22.6875,        108.7759
       22.69583,        108.7137,        22.70416,         108.651,         22.7125,        108.5884,        22.72083,        108.5252
       22.72916,         108.462,         22.7375,        108.3974,        22.74583,        108.3339,        22.75417,        108.2691
        22.7625,        108.2047,        22.77084,        108.1386,        22.77917,        108.0726,         22.7875,        108.0062
       22.79584,        107.9411,        22.80417,        107.8738,         22.8125,        107.8068,        22.82083,          107.74
       22.82916,         107.673,         22.8375,        107.6042,        22.84583,        107.5369,        22.85416,        107.4687
        22.8625,        107.3997,        22.87083,        107.3309,        22.87917,        107.2602,         22.8875,        107.1898
       22.89584,         107.119,        22.90417,        107.0479,         22.9125,        106.9771,        22.92084,        106.9064
       22.92917,        106.8349,         22.9375,        106.7634,        22.94583,        106.6913,        22.95416,        106.6188
        22.9625,        106.5449,        22.97083,        106.4722,        22.97916,        106.3984,         22.9875,        106.3241
       22.99583,        106.2492,        23.00417,        106.1743,         23.0125,        106.0995,        23.02084,        106.0238
       23.02917,        105.9464,         23.0375,        105.8705,        23.04584,        105.7941,        23.05417,        105.7176
        23.0625,        105.6401,        23.07083,        105.5628,        23.07916,        105.4852,         23.0875,        105.4061
       23.09583,        105.3275,        23.10416,        105.2478,         23.1125,        105.1683,        23.12083,        105.0875
       23.12917,        105.0074,         23.1375,        104.9259,        23.14584,        104.8442,        23.15417,        104.7602
        23.1625,        104.6804,        23.17084,         104.596,        23.17917,        104.5166,         23.1875,         104.432
       23.19583,         104.347,        23.20416,        104.2672,         23.2125,        104.1801,        23.22083,        104.0954
       23.22916,         104.021,         23.2375,        103.9337,        23.24583,        103.8538,        23.25417,        103.7666
        23.2625,        103.6871,        23.27084,        103.6142,        23.27917,        103.5287,         23.2875,         103.451
       23.29584,        103.3738,        23.30417,        103.3022,         23.3125,        103.2192,        23.32083,         103.147
       23.32916,        103.0725,         23.3375,        103.0102,        23.34583,        102.9314,        23.35416,        102.8589
        23.3625,        102.7936,        23.37083,        102.7232,        23.37917,         102.658,         23.3875,        102.5907
       23.39584,        102.5233,        23.40417,        102.4561,         23.4125,        102.3983,        23.42084,        102.3321
       23.42917,        102.2729,         23.4375,        102.2053,        23.44583,         102.141,        23.45416,         102.074
        23.4625,        102.0202,        23.47083,        101.9604,        23.47916,        101.9029,         23.4875,        101.8417
       23.49583,         101.778,        23.50417,        101.7288,         23.5125,        101.6728,        23.52084,          101.61
       23.52917,        101.5587,         23.5375,        101.5088,        23.54584,        101.4464,        23.55417,        101.3963
        23.5625,        101.3482,        23.57083,        101.2943,        23.57916,        101.2366,         23.5875,        101.1915
       23.59583,         101.146,        23.60416,        101.0998,         23.6125,        101.0496,        23.62083,        100.9981
       23.62917,        100.9504,         23.6375,        100.9046,        23.64584,        100.8568,        23.65417,        100.8069
        23.6625,        100.7577,        23.67084,        100.7133,        23.67917,        100.6634,         23.6875,        100.6188
       23.69583,        100.5684,        23.70416,        100.5272,         23.7125,        100.4734,        23.72083,        100.4297
       23.72916,        100.3844,         23.7375,        100.3329,        23.74583,        100.2895,        23.75417,        100.2538
        23.7625,        100.2067,        23.77084,        100.1704,        23.77917,        100.1279,         23.7875,        100.0813
       23.79584,        100.0354,        23.80417,        99.99575,         23.8125,        99.96061,        23.82083,        99.91291
       23.82916,        99.87225,         23.8375,        99.81844,        23.84583,        99.78384,        23.85416,        99.74576
        23.8625,        99.69892,        23.87083,         99.6645,        23.87917,        99.61753,         23.8875,        99.58087
       23.89584,         99.5367,        23.90417,        99.49524,         23.9125,        99.45937,        23.92084,        99.42457
       23.92917,        99.37897,         23.9375,         99.3423,        23.94583,        99.30414,        23.95416,        99.26008
        23.9625,        99.22051,        23.97083,        99.18071,        23.97916,        99.14019,         23.9875,        99.09409
       23.99583,        99.05919,        24.00417,        99.02311,         24.0125,        98.97705,        24.02084,        98.94368
       24.02917,        98.91139,         24.0375,        98.86562,        24.04584,        98.82782,        24.05417,        98.79137
        24.0625,         98.7525,        24.07083,         98.7147,        24.07916,         98.6773,         24.0875,        98.63972
       24.09583,        98.60069,        24.10416,         98.5628,         24.1125,        98.52947,        24.12083,        98.49344
       24.12917,        98.45291,         24.1375,        98.40587,        24.14584,        98.37438,        24.15417,        98.33801
        24.1625,        98.29825,        24.17084,        98.25674,        24.17917,        98.22361,         24.1875,        98.18406
       24.19583,        98.14266,        24.20416,        98.10871,         24.2125,        98.07189,        24.22083,        98.03016
       24.22916,        97.99415,         24.2375,        97.95888,        24.24583,        97.92676,        24.25417,        97.88353
        24.2625,        97.84453,        24.27084,        97.81153,        24.27917,        97.77749,         24.2875,         97.7365
       24.29584,        97.70653,        24.30417,        97.65919,         24.3125,        97.62399,        24.32083,        97.58746
       24.32916,         97.5535,         24.3375,        97.52353,        24.34583,        97.47675,        24.35416,        97.43781
        24.3625,        97.39861,        24.37083,        97.36511,        24.37917,        97.32642,         24.3875,        97.29516
       24.39584,        97.25655,        24.40417,        97.21672,         24.4125,        97.17476,        24.42084,         97.1435
       24.42917,        97.10666,         24.4375,        97.06518,        24.44583,        97.03626,        24.45416,        97.00238
        24.4625,        96.96384,        24.47083,        96.92886,        24.47916,        96.88418,         24.4875,        96.85568
       24.49583,         96.8208,        24.50417,        96.77766,         24.5125,        96.73844,        24.52084,        96.70851
       24.52917,         96.6654,         24.5375,        96.62994,        24.54584,        96.59731,        24.55417,        96.55941
        24.5625,        96.52336,        24.57083,        96.48788,        24.57916,        96.45153,         24.5875,        96.41128
       24.59583,        96.37676,        24.60416,        96.34618,         24.6125,        96.30358,        24.62083,        96.26941
       24.62917,        96.22234,         24.6375,        96.19291,        24.64584,        96.15494,        24.65417,        96.12469
        24.6625,        96.08898,        24.67084,        96.04718,        24.67917,        96.01508,         24.6875,        95.97092
       24.69583,        95.94549,        24.70416,        95.89694,         24.7125,        95.87046,        24.72083,        95.83681
       24.72916,        95.80199,         24.7375,        95.76259,        24.74583,        95.72534,        24.75417,        95.68769
        24.7625,        95.64741,        24.77084,        95.61866,        24.77917,        95.57358,         24.7875,         95.5443
       24.79584,        95.50812,        24.80417,        95.47164,         24.8125,        95.43369,        24.82083,        95.39647
       24.82916,        95.36194,         24.8375,        95.32344,        24.84583,        95.28832,        24.85416,         95.2548
        24.8625,        95.21356,        24.87083,        95.17216,        24.87917,        95.13874,         24.8875,        95.10249
       24.89584,        95.06684,        24.90417,        95.02746,         24.9125,        94.99488,        24.92084,        94.95744
       24.92917,         94.9242,         24.9375,         94.8852,        24.94583,        94.84728,        24.95416,        94.80762
        24.9625,        94.77636,        24.97083,        94.74214,        24.97916,        94.69859,         24.9875,        94.66345
       24.99583,        94.62541,        25.00417,        94.58207,         25.0125,        94.54921,        25.02084,        94.51724
       25.02917,        94.47808,         25.0375,        94.44781,        25.04584,        94.40531,        25.05417,        94.36711
        25.0625,          94.333,        25.07083,        94.30019,        25.07916,        94.25749,         25.0875,        94.22694
       25.09583,        94.18492,        25.10416,        94.15266,         25.1125,        94.11738,        25.12083,        94.08457
       25.12917,         94.0439,         25.1375,        94.00718,        25.14584,        93.97212,        25.15417,        93.93043
        25.1625,        93.90194,        25.17084,        93.86232,        25.17917,        93.82574,         25.1875,        93.78822
       25.19583,        93.74858,        25.20416,        93.71016,         25.2125,        93.67872,        25.22083,        93.63921
       25.22916,        93.60621,         25.2375,        93.56512,        25.24583,         93.5327,        25.25417,        93.49051
        25.2625,        93.46137,        25.27084,        93.42353,        25.27917,        93.38828,         25.2875,        93.34712
       25.29584,        93.31215,        25.30417,        93.27452,         25.3125,        93.23845,        25.32083,        93.20062
       25.32916,        93.16766,         25.3375,        93.12816,        25.34583,        93.09539,        25.35416,        93.05547
        25.3625,        93.02168,        25.37083,        92.98535,        25.37917,        92.94822,         25.3875,         92.9161
       25.39584,        92.87732,        25.40417,        92.83205,         25.4125,        92.79551,        25.42084,        92.76453
       25.42917,        92.72602,         25.4375,        92.69306,        25.44583,        92.65028,        25.45416,        92.61481
        25.4625,        92.58164,        25.47083,        92.54488,        25.47916,        92.50856,         25.4875,        92.46842
       25.49583,        92.43165,        25.50417,        92.39751,         25.5125,        92.36016,        25.52084,         92.3225
       25.52917,        92.28563,         25.5375,        92.24497,        25.54584,        92.21148,        25.55417,         92.1773
        25.5625,        92.13378,        25.57083,        92.10649,        25.57916,        92.06544,         25.5875,        92.02601
       25.59583,        91.99482,        25.60416,        91.95895,         25.6125,         91.9192,        25.62083,        91.88458
       25.62917,        91.84386,         25.6375,        91.80756,        25.64584,        91.77008,        25.65417,        91.73401
        25.6625,        91.70142,        25.67084,        91.66289,        25.67916,        91.62543,         25.6875,        91.58447
       25.69584,        91.55005,        25.70416,        91.51236,         25.7125,        91.47338,        25.72083,        91.43644
       25.72916,         91.4045,         25.7375,        91.36664,        25.74583,        91.32753,        25.75417,        91.29497
        25.7625,        91.25618,        25.77084,        91.21768,        25.77917,        91.18009,         25.7875,        91.14301
       25.79584,        91.10931,        25.80416,        91.07434,         25.8125,        91.03761,        25.82084,        90.99736
       25.82916,         90.9603,         25.8375,        90.92509,        25.84583,        90.88742,        25.85416,        90.85319
        25.8625,        90.81392,        25.87083,        90.77281,        25.87917,        90.73955,         25.8875,        90.70195
       25.89584,         90.6678,        25.90417,         90.6315,         25.9125,        90.58984,        25.92084,         90.5512
       25.92916,        90.51699,         25.9375,        90.47809,        25.94584,        90.43853,        25.95416,        90.39997
        25.9625,        90.36402,        25.97083,        90.33256,        25.97916,        90.29603,         25.9875,         90.2592
       25.99583,        90.21035,        26.00417,        90.18384,         26.0125,        90.14265,        26.02084,        90.10914
       26.02917,        90.07129,         26.0375,        90.03426,        26.04584,        89.99978,        26.05416,        89.95852
        26.0625,        89.92468,        26.07084,        89.88382,        26.07916,        89.85024,         26.0875,        89.81658
       26.09583,        89.77859,        26.10416,        89.74082,         26.1125,        89.70959,        26.12083,        89.66909
       26.12917,        89.62632,         26.1375,        89.59431,        26.14584,         89.5564,        26.15417,        89.51822
        26.1625,        89.47959,        26.17084,        89.44462,        26.17916,        89.39891,         26.1875,        89.36844
       26.19584,        89.32824,        26.20416,        89.29824,         26.2125,        89.25722,        26.22083,        89.22674
       26.22916,        89.18561,         26.2375,        89.15218,        26.24583,        89.10778,        26.25417,        89.07457
        26.2625,        89.03586,        26.27084,        88.99962,        26.27917,         88.9645,         26.2875,        88.92414
       26.29584,        88.88774,        26.30416,        88.85155,         26.3125,         88.8062,        26.32084,        88.77541
       26.32916,        88.73908,         26.3375,        88.69703,        26.34583,         88.6628,        26.35416,        88.61945
        26.3625,        88.58586,        26.37083,        88.54211,        26.37917,        88.50653,         26.3875,        88.46428
       26.39584,        88.42774,        26.40417,        88.38959,         26.4125,        88.34444,        26.42084,        88.31294
       26.42916,         88.2754,         26.4375,        88.23566,        26.44584,        88.18764,        26.45416,        88.15803
        26.4625,        88.11571,        26.47083,        88.07689,        26.47916,        88.03758,         26.4875,        87.98859
       26.49583,        87.95051,        26.50417,        87.90314,         26.5125,        87.86636,        26.52084,        87.83024
       26.52917,        87.78702,         26.5375,        87.74224,        26.54584,        87.70801,        26.55416,        87.66793
        26.5625,        87.63085,        26.57084,        87.58394,        26.57916,        87.54491,         26.5875,        87.50551
       26.59583,        87.46434,        26.60416,        87.42586,         26.6125,        87.38305,        26.62083,        87.33993
       26.62917,         87.2947,         26.6375,        87.25109,        26.64584,        87.21468,        26.65417,        87.17832
        26.6625,        87.13124,        26.67084,        87.09158,        26.67916,        87.05313,         26.6875,         87.0039
       26.69584,        86.96259,        26.70416,         86.9288,         26.7125,        86.87828,        26.72083,        86.83644
       26.72916,        86.79285,         26.7375,        86.75587,        26.74583,        86.71259,        26.75417,        86.66691
        26.7625,         86.6265,        26.77084,        86.58276,        26.77917,        86.54391,         26.7875,        86.49911
       26.79584,        86.45856,        26.80416,         86.4211,         26.8125,        86.37196,        26.82084,        86.33736
       26.82916,        86.29053,         26.8375,        86.25326,        26.84583,        86.20851,        26.85416,        86.16112
        26.8625,        86.12576,        26.87083,        86.07455,        26.87917,        86.03059,         26.8875,          85.991
       26.89584,        85.94759,        26.90417,        85.90888,         26.9125,        85.86297,        26.92084,        85.82369
       26.92916,        85.78124,         26.9375,        85.73689,        26.94584,        85.69472,        26.95416,        85.65601
        26.9625,        85.61444,        26.97083,         85.5622,        26.97916,        85.52379,         26.9875,        85.48363
       26.99583,        85.44353,        27.00417,        85.39556,         27.0125,        85.35629,        27.02084,        85.31591
       27.02917,        85.26528,         27.0375,        85.23259,        27.04584,        85.19268,        27.05416,        85.15358
        27.0625,        85.11337,        27.07084,        85.06822,        27.07916,        85.02765,         27.0875,         84.9841
       27.09583,        84.93744,        27.10416,        84.89753,         27.1125,        84.85465,        27.12083,        84.80898
       27.12917,        84.77241,         27.1375,        84.73334,        27.14584,        84.68985,        27.15417,        84.64803
        27.1625,         84.6028,        27.17084,        84.56602,        27.17916,        84.52403,         27.1875,        84.48598
       27.19584,        84.44531,        27.20416,        84.40441,         27.2125,        84.36085,        27.22083,         84.3222
       27.22916,        84.28758,         27.2375,        84.23968,        27.24583,         84.1915,        27.25417,        84.15718
        27.2625,        84.11606,        27.27084,        84.07534,        27.27917,        84.03156,         27.2875,        83.99363
       27.29584,        83.95978,        27.30416,        83.91797,         27.3125,        83.87455,        27.32084,        83.83845
       27.32916,        83.79226,         27.3375,        83.76316,        27.34583,         83.7208,        27.35416,        83.66894
        27.3625,        83.63696,        27.37083,        83.60084,        27.37917,        83.55601,         27.3875,        83.51484
       27.39584,        83.47609,        27.40417,        83.44138,         27.4125,         83.3997,        27.42084,        83.35304
       27.42916,        83.31399,         27.4375,        83.28242,        27.44584,        83.24369,        27.45416,        83.19593
        27.4625,        83.15422,        27.47083,        83.12475,        27.47916,           83.08,         27.4875,        83.03484
       27.49583,        82.99894,        27.50417,        82.95711,         27.5125,        82.91747,        27.52084,         82.8832
       27.52917,        82.83705,         27.5375,        82.80594,        27.54584,        82.75952,        27.55416,        82.72276
        27.5625,         82.6894,        27.57084,         82.6504,        27.57916,        82.60992,         27.5875,         82.5749
       27.59583,        82.53562,        27.60416,        82.48916,         27.6125,        82.44907,        27.62083,        82.41632
       27.62917,         82.3711,         27.6375,        82.33272,        27.64584,        82.29379,        27.65417,        82.25488
        27.6625,        82.21578,        27.67084,        82.17457,        27.67916,        82.13834,         27.6875,        82.09778
       27.69584,        82.06426,        27.70416,        82.02356,         27.7125,         81.9797,        27.72083,         81.9479
       27.72916,        81.90297,         27.7375,        81.86744,        27.74583,        81.83222,        27.75417,        81.78718
        27.7625,         81.7534,        27.77084,         81.7107,        27.77917,        81.67188,         27.7875,        81.63724
       27.79584,        81.60255,        27.80416,        81.56024,         27.8125,        81.51876,        27.82084,        81.47431
       27.82916,         81.4411,         27.8375,         81.4021,        27.84583,        81.36812,        27.85416,        81.32741
        27.8625,         81.2835,        27.87083,        81.24594,        27.87917,        81.21838,         27.8875,        81.17345
       27.89584,        81.14097,        27.90417,        81.10406,         27.9125,        81.05758,        27.92084,        81.02612
       27.92916,        80.98028,         27.9375,        80.94978,        27.94584,          80.909,        27.95416,        80.86812
        27.9625,        80.83764,        27.97083,        80.79261,        27.97916,        80.75738,         27.9875,         80.7171
       27.99583,        80.68581,        28.00417,        80.64114,         28.0125,        80.60699,        28.02084,           80.57
       28.02917,        80.52537,         28.0375,        80.48844,        28.04584,        80.44684,        28.05416,        80.41382
        28.0625,        80.37438,        28.07084,        80.33374,        28.07916,        80.29497,         28.0875,        80.26456
       28.09583,        80.22032,        28.10416,        80.18402,         28.1125,        80.14696,        28.12083,        80.10996
       28.12917,        80.06892,         28.1375,        80.03296,        28.14584,        79.99421,        28.15417,        79.95098
        28.1625,        79.91269,        28.17084,        79.87792,        28.17916,        79.84065,         28.1875,        79.80499
       28.19584,        79.76622,        28.20416,        79.72984,         28.2125,        79.68858,        28.22083,         79.6465
       28.22916,        79.61262,         28.2375,        79.57386,        28.24583,        79.53544,        28.25417,        79.50182
        28.2625,        79.45247,        28.27084,        79.42442,        28.27917,        79.38044,         28.2875,        79.33828
       28.29584,         79.3045,        28.30416,        79.26626,         28.3125,        79.22968,        28.32084,        79.19039
       28.32916,        79.15038,         28.3375,        79.11553,        28.34583,        79.07481,        28.35416,        79.04016
        28.3625,        79.00269,        28.37083,        78.96362,        28.37917,        78.92582,         28.3875,         78.8828
       28.39584,        78.84482,        28.40417,        78.80806,         28.4125,        78.76882,        28.42084,        78.72429
       28.42916,         78.6916,         28.4375,        78.64939,        28.44584,        78.62051,        28.45416,        78.57188
        28.4625,        78.53582,        28.47083,        78.50109,        28.47916,        78.46387,         28.4875,        78.42856
       28.49583,         78.3855,        28.50417,        78.34281,         28.5125,        78.30816,        28.52084,         78.2761
       28.52917,        78.22684,         28.5375,        78.19355,        28.54584,        78.15339,        28.55416,        78.11551
        28.5625,         78.0786,        28.57084,        78.03486,        28.57916,         78.0009,         28.5875,        77.96475
       28.59583,        77.91956,        28.60416,        77.88202,         28.6125,         77.8478,        28.62083,        77.80225
       28.62917,        77.76509,         28.6375,        77.72808,        28.64584,        77.69176,        28.65417,        77.65742
        28.6625,         77.6196,        28.67084,         77.5785,        28.67916,          77.538,         28.6875,        77.49903
       28.69584,        77.46044,        28.70416,         77.4281,         28.7125,        77.38628,        28.72083,        77.34522
       28.72916,        77.30562,         28.7375,        77.26851,        28.74583,        77.22082,        28.75417,        77.18844
        28.7625,        77.14312,        28.77084,        77.11049,        28.77917,        77.07515,         28.7875,        77.03599
       28.79584,        76.99684,        28.80416,        76.95675,         28.8125,        76.91009,        28.82084,        76.87832
       28.82916,         76.8392,         28.8375,         76.7944,        28.84583,        76.75489,        28.85416,        76.71658
        28.8625,          76.671,        28.87083,        76.62762,        28.87917,         76.5907,         28.8875,        76.55356
       28.89584,        76.51018,        28.90417,         76.4676,         28.9125,        76.43207,        28.92084,        76.38909
       28.92916,         76.3481,         28.9375,        76.30844,        28.94584,        76.26874,        28.95416,        76.22061
        28.9625,        76.18206,        28.97083,        76.14514,        28.97916,        76.10379,         28.9875,        76.06566
       28.99583,        76.02444,        29.00417,        75.98408,         29.0125,        75.93374,        29.02084,        75.89585
       29.02917,        75.85386,         29.0375,        75.80852,        29.04584,        75.76426,        29.05416,         75.7298
        29.0625,        75.68757,        29.07084,        75.64069,        29.07916,        75.60507,         29.0875,        75.55425
       29.09583,        75.52007,        29.10416,        75.47732,         29.1125,        75.43663,        29.12083,         75.3973
       29.12917,        75.34708,         29.1375,        75.30706,        29.14584,        75.26456,        29.15417,         75.2211
        29.1625,        75.16938,        29.17084,        75.13296,        29.17916,         75.0938,         29.1875,        75.05085
       29.19584,        75.00829,        29.20416,        74.96371,         29.2125,        74.91855,        29.22083,        74.87878
       29.22916,        74.83478,         29.2375,        74.79347,        29.24583,        74.75272,        29.25417,        74.71116
        29.2625,        74.66756,        29.27084,        74.62438,        29.27917,        74.58688,         29.2875,        74.54339
       29.29584,         74.4934,        29.30416,        74.44963,         29.3125,        74.40035,        29.32084,        74.36545
       29.32916,         74.3266,         29.3375,        74.27693,        29.34583,        74.23793,        29.35416,         74.1953
        29.3625,        74.14491,        29.37083,        74.11268,        29.37917,        74.05879,         29.3875,        74.02278
       29.39584,         73.9729,        29.40417,         73.9335,         29.4125,           73.88,        29.42084,        73.84368
       29.42916,        73.79756,         29.4375,        73.75859,        29.44584,         73.7177,        29.45416,        73.67332
        29.4625,        73.63984,        29.47083,        73.58635,        29.47916,        73.54718,         29.4875,        73.50574
       29.49583,        73.46835,        29.50417,        73.42657,         29.5125,        73.38049,        29.52084,         73.3387
       29.52917,         73.2953,         29.5375,         73.2554,        29.54584,         73.2091,        29.55416,        73.16993
        29.5625,        73.12918,        29.57084,        73.08739,        29.57916,        73.04892,         29.5875,        73.00154
       29.59583,        72.96475,        29.60416,          72.917,         29.6125,        72.87776,        29.62083,        72.83075
       29.62917,        72.78762,         29.6375,        72.74431,        29.64584,        72.70478,        29.65417,         72.6548
        29.6625,         72.6261,        29.67084,        72.57722,        29.67916,        72.53816,         29.6875,        72.49819
       29.69584,        72.45082,        29.70416,         72.4139,         29.7125,        72.36532,        29.72083,        72.32844
       29.72916,        72.28891,         29.7375,         72.2461,        29.74583,        72.20884,        29.75417,        72.15406
        29.7625,         72.1179,        29.77084,        72.07819,        29.77917,        72.03884,         29.7875,        72.00219
       29.79584,        71.95922,        29.80416,         71.9196,         29.8125,        71.87942,        29.82084,         71.8329
       29.82916,         71.7965,         29.8375,         71.7574,        29.84583,         71.7178,        29.85416,        71.67011
        29.8625,        71.63128,        29.87083,        71.58955,        29.87917,         71.5501,         29.8875,        71.51437
       29.89584,        71.47011,        29.90417,        71.42731,         29.9125,        71.38299,        29.92084,        71.34062
       29.92916,         71.3059,         29.9375,        71.25644,        29.94584,        71.22055,        29.95416,        71.17478
        29.9625,        71.13472,        29.97083,        71.09026,        29.97916,         71.0527,         29.9875,        71.00716
       29.99583,         70.9728,        30.00417,        70.93497,         30.0125,         70.8975,        30.02084,        70.85499
       30.02917,        70.81052,         30.0375,        70.76976,        30.04584,        70.73068,        30.05416,        70.69253
        30.0625,        70.65284,        30.07084,        70.61203,        30.07916,         70.5704,         30.0875,        70.53288
       30.09583,          70.486,        30.10416,         70.4446,         30.1125,        70.41265,        30.12083,        70.37056
       30.12917,        70.32808,         30.1375,        70.28952,        30.14584,        70.24682,        30.15417,         70.2133
        30.1625,        70.16624,        30.17084,        70.13138,        30.17916,        70.08144,         30.1875,         70.0439
       30.19584,        70.00781,        30.20416,        69.96624,         30.2125,        69.92772,        30.22083,        69.89215
       30.22916,        69.84428,         30.2375,        69.80612,        30.24583,        69.76113,        30.25417,          69.722
        30.2625,        69.68378,        30.27084,        69.64914,        30.27917,         69.6061,         30.2875,         69.5614
       30.29584,        69.52616,        30.30416,        69.47962,         30.3125,        69.44253,        30.32084,          69.406
       30.32916,        69.36256,         30.3375,        69.32534,        30.34583,        69.29306,        30.35416,        69.25562
        30.3625,         69.2086,        30.37083,        69.16796,        30.37917,        69.13262,         30.3875,        69.08546
       30.39584,        69.04438,        30.40417,        69.01231,         30.4125,        68.97352,        30.42084,        68.93732
       30.42916,        68.89125,         30.4375,        68.85315,        30.44584,        68.81145,        30.45416,        68.76586
        30.4625,        68.72969,        30.47083,        68.69136,        30.47916,        68.65816,         30.4875,        68.61309
       30.49583,        68.56969,        30.50417,        68.53458,         30.5125,        68.49628,        30.52084,        68.45312
       30.52917,        68.40801,         30.5375,        68.37314,        30.54584,        68.33624,        30.55416,        68.30088
        30.5625,        68.26213,        30.57084,        68.22142,        30.57916,        68.18179,         30.5875,        68.14004
       30.59583,         68.1007,        30.60416,        68.06285,         30.6125,        68.01816,        30.62083,        67.97505
       30.62917,        67.93812,         30.6375,        67.89394,        30.64584,        67.85253,        30.65417,        67.81788
        30.6625,        67.78003,        30.67084,        67.73938,        30.67916,            67.7,         30.6875,        67.66052
       30.69584,        67.61856,        30.70416,        67.57622,         30.7125,        67.53695,        30.72083,        67.49542
       30.72916,        67.45749,         30.7375,        67.41456,        30.74583,         67.3709,        30.75417,        67.33172
        30.7625,        67.29609,        30.77084,        67.25416,        30.77917,        67.21811,         30.7875,        67.18024
       30.79584,        67.13644,        30.80416,        67.09739,         30.8125,          67.054,        30.82084,        67.01638
       30.82916,        66.97349,         30.8375,        66.93455,        30.84583,        66.89507,        30.85416,        66.85722
        30.8625,        66.81404,        30.87083,        66.76428,        30.87917,         66.7373,         30.8875,        66.68924
       30.89584,        66.65419,        30.90417,        66.61788,         30.9125,        66.57146,        30.92084,        66.53189
       30.92916,        66.48876,         30.9375,        66.45172,        30.94584,        66.41772,        30.95416,        66.37203
        30.9625,        66.32325,        30.97083,        66.29076,        30.97916,        66.25464,         30.9875,        66.20562
       30.99583,        66.16831,        31.00417,        66.12728,         31.0125,        66.08368,        31.02084,        66.04329
       31.02917,        66.00866,         31.0375,        65.97094,        31.04584,        65.92881,        31.05416,        65.88584
        31.0625,        65.84453,        31.07084,        65.80726,        31.07916,        65.76155,         31.0875,        65.71701
       31.09583,         65.6832,        31.10416,         65.6363,         31.1125,        65.59687,        31.12083,        65.55684
       31.12917,         65.5165,         31.1375,        65.48015,        31.14584,        65.44118,        31.15417,        65.39847
        31.1625,        65.34711,        31.17084,        65.31607,        31.17916,        65.27979,         31.1875,        65.23399
       31.19584,        65.18757,        31.20416,        65.15374,         31.2125,        65.11128,        31.22083,        65.07389
       31.22916,        65.03188,         31.2375,        64.98972,        31.24583,        64.94953,        31.25417,        64.89653
        31.2625,        64.87131,        31.27084,        64.82466,        31.27917,        64.78435,         31.2875,        64.75026
       31.29584,        64.70731,        31.30416,        64.66105,         31.3125,        64.63301,        31.32084,        64.58286
       31.32916,        64.54216,         31.3375,        64.50184,        31.34583,        64.46057,        31.35416,        64.42436
        31.3625,        64.38266,        31.37083,        64.33194,        31.37917,        64.29474,         31.3875,        64.25394
       31.39584,        64.21559,        31.40417,        64.17324,         31.4125,         64.1322,        31.42084,        64.09199
       31.42916,        64.05336,         31.4375,        64.00888,        31.44584,        63.96563,        31.45416,        63.91831
        31.4625,        63.88302,        31.47083,        63.84229,        31.47916,        63.80568,         31.4875,        63.77109
       31.49583,        63.72265,        31.50417,        63.68652,         31.5125,        63.63548,        31.52084,        63.60326
       31.52917,        63.56265,         31.5375,        63.51898,        31.54584,        63.47625,        31.55416,         63.4367
        31.5625,        63.39424,        31.57084,        63.35891,        31.57916,        63.30695,         31.5875,        63.27276
       31.59583,        63.22632,        31.60416,        63.18812,         31.6125,          63.149,        31.62083,        63.10498
       31.62917,        63.07086,         31.6375,        63.02918,        31.64584,        62.98688,        31.65417,        62.94179
        31.6625,        62.90046,        31.67084,        62.86574,        31.67916,        62.82406,         31.6875,         62.7718
       31.69584,        62.73511,        31.70416,        62.69385,         31.7125,         62.6564,        31.72083,        62.61262
       31.72916,        62.57364,         31.7375,        62.53795,        31.74583,        62.49566,        31.75417,         62.4525
        31.7625,          62.406,        31.77084,        62.36503,        31.77917,        62.31987,         31.7875,        62.28378
       31.79584,        62.23995,        31.80416,        62.19649,         31.8125,        62.16148,        31.82084,        62.11638
       31.82916,        62.07806,         31.8375,        62.04011,        31.84583,        61.99368,        31.85416,        61.95512
        31.8625,        61.90948,        31.87083,        61.87236,        31.87917,        61.83508,         31.8875,        61.78445
       31.89584,        61.75035,        31.90417,        61.71013,         31.9125,        61.66326,        31.92084,        61.62678
       31.92916,         61.5789,         31.9375,        61.54553,        31.94584,        61.50274,        31.95416,        61.45428
        31.9625,        61.41032,        31.97083,        61.37774,        31.97916,        61.33326,         31.9875,        61.29248
       31.99583,        61.25412,        32.00416,        61.21326,         32.0125,        61.16458,        32.02083,        61.12201
       32.02917,        61.07894,         32.0375,        61.03494,        32.04584,        60.99544,        32.05416,        60.95217
        32.0625,         60.9024,        32.07084,        60.86719,        32.07916,        60.81964,         32.0875,        60.77752
       32.09583,        60.73638,        32.10417,        60.69498,         32.1125,        60.65239,        32.12084,         60.6013
       32.12916,         60.5576,         32.1375,        60.51612,        32.14583,        60.47211,        32.15417,        60.42974
        32.1625,        60.38371,        32.17084,         60.3402,        32.17916,        60.29501,         32.1875,         60.2509
       32.19584,        60.20205,        32.20416,        60.15688,         32.2125,        60.11222,        32.22083,        60.06714
       32.22917,         60.0188,         32.2375,        59.97118,        32.24584,        59.92546,        32.25416,        59.88451
        32.2625,        59.83526,        32.27083,         59.7917,        32.27917,        59.74766,         32.2875,        59.69686
       32.29584,        59.64839,        32.30416,         59.6084,         32.3125,        59.55654,        32.32084,        59.51199
       32.32916,        59.46581,         32.3375,        59.41975,        32.34583,        59.37442,        32.35417,        59.32698
        32.3625,        59.27576,        32.37084,        59.22803,        32.37916,        59.18608,         32.3875,        59.13485
       32.39583,        59.09258,        32.40417,          59.039,         32.4125,        58.99869,        32.42084,        58.94387
       32.42916,         58.8901,         32.4375,         58.8547,        32.44584,        58.80582,        32.45416,        58.75455
        32.4625,        58.70862,        32.47083,        58.66477,        32.47917,        58.62256,         32.4875,        58.57914
       32.49584,        58.52916,        32.50416,         58.4762,         32.5125,        58.42859,        32.52083,        58.39319
       32.52917,        58.34048,         32.5375,        58.29454,        32.54584,         58.2489,        32.55416,        58.20043
        32.5625,        58.15778,        32.57084,        58.10872,        32.57916,          58.058,         32.5875,        58.01377
       32.59583,         57.9597,        32.60417,        57.91625,         32.6125,        57.87582,        32.62084,        57.83092
       32.62916,        57.77784,         32.6375,        57.73139,        32.64583,        57.67939,        32.65417,        57.63668
        32.6625,        57.59047,        32.67084,        57.54967,        32.67916,        57.50291,         32.6875,        57.45632
       32.69584,        57.41215,        32.70416,        57.36645,         32.7125,        57.32038,        32.72083,        57.27784
       32.72917,        57.23068,         32.7375,         57.1898,        32.74584,        57.13689,        32.75416,        57.10273
        32.7625,         57.0515,        32.77083,        57.01328,        32.77917,        56.96407,         32.7875,        56.92256
       32.79584,        56.87494,        32.80416,        56.83624,         32.8125,         56.7909,        32.82084,         56.7476
       32.82916,        56.69449,         32.8375,        56.65883,        32.84583,         56.6079,        32.85417,        56.56578
        32.8625,        56.52268,        32.87084,        56.47937,        32.87916,        56.42486,         32.8875,         56.3925
       32.89583,        56.34106,        32.90417,        56.30199,         32.9125,        56.26022,        32.92084,        56.21184
       32.92916,        56.16079,         32.9375,         56.1156,        32.94584,        56.08369,        32.95416,         56.0326
        32.9625,        55.99253,        32.97083,         55.9462,        32.97917,         55.9012,         32.9875,        55.86199
       32.99584,         55.8108,        33.00416,        55.76562,         33.0125,        55.71488,        33.02083,        55.68354
       33.02917,        55.64012,         33.0375,        55.60149,        33.04584,        55.54744,        33.05416,        55.51734
        33.0625,         55.4675,        33.07084,        55.42012,        33.07916,          55.375,         33.0875,        55.33242
       33.09583,        55.29274,        33.10417,        55.25668,         33.1125,        55.20877,        33.12084,        55.16567
       33.12916,          55.124,         33.1375,        55.07479,        33.14583,        55.03255,        33.15417,        54.99412
        33.1625,        54.95942,        33.17084,        54.91175,        33.17916,        54.87124,         33.1875,        54.82238
       33.19584,         54.7805,        33.20416,        54.75213,         33.2125,        54.70361,        33.22083,        54.67184
       33.22917,        54.62432,         33.2375,        54.57898,        33.24584,         54.5388,        33.25416,         54.4992
        33.2625,        54.45748,        33.27083,        54.41342,        33.27917,        54.37955,         33.2875,        54.32516
       33.29584,        54.29838,        33.30416,        54.25109,         33.3125,           54.21,        33.32084,        54.16632
       33.32916,        54.12266,         33.3375,        54.08103,        33.34583,        54.04584,        33.35417,        54.00846
        33.3625,        53.96258,        33.37084,        53.92039,        33.37916,        53.88455,         33.3875,        53.84283
       33.39583,        53.79349,        33.40417,         53.7648,         33.4125,        53.72799,        33.42084,        53.67545
       33.42916,        53.63111,         33.4375,        53.59202,        33.44584,        53.55498,        33.45416,         53.5133
        33.4625,        53.47508,        33.47083,        53.43482,        33.47917,        53.39839,         33.4875,          53.343
       33.49584,        53.31118,        33.50416,        53.26457,         33.5125,        53.23922,        33.52083,         53.2025
       33.52917,        53.15142,         33.5375,        53.11313,        33.54584,         53.0789,        33.55416,        53.04252
        33.5625,        53.00322,        33.57084,        52.96191,        33.57916,        52.91613,         33.5875,        52.88108
       33.59583,        52.84553,        33.60417,        52.79996,         33.6125,        52.76449,        33.62084,        52.72209
       33.62916,        52.67578,         33.6375,        52.64716,        33.64583,        52.60714,        33.65417,        52.56856
        33.6625,        52.52408,        33.67084,        52.48496,        33.67916,        52.45085,         33.6875,        52.41206
       33.69584,        52.36748,        33.70416,        52.33502,         33.7125,        52.29566,        33.72083,        52.25284
       33.72917,         52.2216,         33.7375,        52.18288,        33.74584,        52.13412,        33.75416,         52.0919
        33.7625,        52.05419,        33.77083,        52.02174,        33.77917,        51.98231,         33.7875,        51.94368
       33.79584,        51.90496,        33.80416,        51.86491,         33.8125,        51.83387,        33.82084,         51.7918
       33.82916,        51.75109,         33.8375,        51.71168,        33.84583,        51.66887,        33.85417,        51.63858
        33.8625,        51.59769,        33.87084,        51.55404,        33.87916,        51.51609,         33.8875,         51.4837
       33.89583,        51.45034,        33.90417,        51.41534,         33.9125,        51.37051,        33.92084,        51.33076
       33.92916,        51.29197,         33.9375,         51.2545,        33.94584,        51.21594,        33.95416,        51.16667
        33.9625,        51.13101,        33.97083,        51.09617,        33.97917,        51.06589,         33.9875,        51.02612
       33.99584,        50.98394,        34.00416,        50.94686,         34.0125,        50.91837,        34.02083,        50.88132
       34.02917,        50.83612,         34.0375,        50.78926,        34.04584,        50.75838,        34.05416,        50.71352
        34.0625,        50.67776,        34.07084,        50.64224,        34.07916,        50.60348,         34.0875,        50.55811
       34.09583,        50.52306,        34.10417,         50.4894,         34.1125,        50.44933,        34.12084,        50.40442
       34.12916,        50.36933,         34.1375,        50.32682,        34.14583,        50.29104,        34.15417,        50.24472
        34.1625,         50.2051,        34.17084,         50.1736,        34.17916,          50.131,         34.1875,         50.0982
       34.19584,         50.0656,        34.20416,        50.02343,         34.2125,        49.98078,        34.22083,        49.94328
       34.22917,        49.90516,         34.2375,        49.86868,        34.24584,        49.83144,        34.25416,         49.7846
        34.2625,        49.75317,        34.27083,         49.7055,        34.27917,        49.67081,         34.2875,        49.63554
       34.29584,        49.59519,        34.30416,        49.55191,         34.3125,        49.51817,        34.32084,        49.47459
       34.32916,        49.43121,         34.3375,        49.40188,        34.34583,        49.37114,        34.35417,        49.33006
        34.3625,        49.27619,        34.37084,        49.24658,        34.37916,        49.20442,         34.3875,        49.17014
       34.39583,        49.13556,        34.40417,        49.09191,         34.4125,         49.0591,        34.42084,        49.02084
       34.42916,        48.97796,         34.4375,        48.94395,        34.44584,        48.89603,        34.45416,        48.85942
        34.4625,        48.82474,        34.47083,        48.78271,        34.47917,        48.73988,         34.4875,        48.69503
       34.49584,        48.66489,        34.50416,        48.60646,         34.5125,        48.57935,        34.52083,        48.54615
       34.52917,           48.51,         34.5375,        48.46716,        34.54584,        48.42462,        34.55416,        48.38435
        34.5625,        48.34697,        34.57084,         48.3123,        34.57916,         48.2633,         34.5875,        48.21672
       34.59583,        48.17831,        34.60417,        48.13754,         34.6125,         48.0932,        34.62084,        48.05813
       34.62916,        48.01021,         34.6375,        47.97224,        34.64583,         47.9274,        34.65417,        47.89133
        34.6625,        47.85098,        34.67084,        47.80366,        34.67916,        47.75476,         34.6875,        47.71127
       34.69584,        47.67582,        34.70416,         47.6327,         34.7125,        47.57891,        34.72083,         47.5448
       34.72917,        47.50241,         34.7375,        47.45611,        34.74584,        47.42072,        34.75416,         47.3738
        34.7625,         47.3178,        34.77083,        47.28383,        34.77917,          47.239,         34.7875,        47.19683
       34.79584,          47.146,        34.80416,         47.1103,         34.8125,        47.05117,        34.82084,        47.00378
       34.82916,        46.97942,         34.8375,        46.92896,        34.84583,        46.88324,        34.85417,        46.84163
        34.8625,        46.78217,        34.87084,        46.74906,        34.87916,        46.70053,         34.8875,        46.64972
       34.89583,        46.60247,        34.90417,        46.55348,         34.9125,        46.50332,        34.92084,        46.46098
       34.92916,        46.40572,         34.9375,         46.3575,        34.94584,         46.3135,        34.95416,        46.25364
        34.9625,        46.20793,        34.97083,        46.15738,        34.97917,        46.10612,         34.9875,        46.05978
       34.99584,        46.01798,        35.00416,        45.97261,         35.0125,        45.91748,        35.02083,         45.8782
       35.02917,        45.82718,         35.0375,        45.77564,        35.04584,        45.73477,        35.05416,        45.68379
        35.0625,        45.62916,        35.07084,        45.58876,        35.07916,        45.53666,         35.0875,        45.48753
       35.09583,          45.442,        35.10417,        45.40039,         35.1125,        45.34815,        35.12084,        45.29843
       35.12916,        45.23664,         35.1375,         45.1961,        35.14583,        45.14729,        35.15417,        45.10266
        35.1625,        45.06113,        35.17084,        45.00125,        35.17916,        44.95937,         35.1875,        44.90902
       35.19584,        44.85792,        35.20416,        44.81802,         35.2125,         44.7605,        35.22083,        44.72312
       35.22917,        44.67835,         35.2375,        44.62146,        35.24584,        44.57676,        35.25416,        44.53072
        35.2625,        44.48317,        35.27083,         44.4314,        35.27917,        44.38856,         35.2875,         44.3325
       35.29584,        44.28847,        35.30416,        44.24534,         35.3125,        44.20276,        35.32084,        44.15052
       35.32916,        44.10556,         35.3375,        44.05616,        35.34583,        44.01586,        35.35417,        43.96672
        35.3625,        43.92306,        35.37084,        43.86981,        35.37916,        43.82753,         35.3875,        43.77418
       35.39583,         43.7295,        35.40417,        43.69424,         35.4125,          43.635,        35.42084,        43.60211
       35.42916,        43.56067,         35.4375,        43.51768,        35.44584,        43.46464,        35.45416,        43.41004
        35.4625,        43.37546,        35.47083,        43.33383,        35.47917,        43.28074,         35.4875,         43.2353
       35.49584,        43.20522,        35.50416,        43.16059,         35.5125,         43.1145,        35.52083,        43.07218
       35.52917,        43.01758,         35.5375,        42.97362,        35.54584,        42.94503,        35.55416,        42.89894
        35.5625,        42.85889,        35.57084,        42.80842,        35.57916,         42.7728,         35.5875,        42.73028
       35.59583,        42.67768,        35.60417,        42.64887,         35.6125,        42.60354,        35.62084,        42.56192
       35.62916,        42.52213,         35.6375,        42.48278,        35.64583,          42.436,        35.65417,        42.39578
        35.6625,        42.35065,        35.67084,        42.31128,        35.67916,        42.27457,         35.6875,        42.23341
       35.69584,        42.18627,        35.70416,        42.14287,         35.7125,        42.10798,        35.72083,        42.07414
       35.72917,        42.02133,         35.7375,        41.98938,        35.74584,        41.93982,        35.75416,        41.90459
        35.7625,        41.86026,        35.77083,        41.82687,        35.77917,         41.7765,         35.7875,        41.73636
       35.79584,          41.695,        35.80416,        41.64937,         35.8125,        41.61115,        35.82084,        41.57133
       35.82916,        41.53885,         35.8375,         41.4918,        35.84583,        41.45563,        35.85417,        41.42416
        35.8625,        41.36926,        35.87084,        41.32824,        35.87916,        41.29348,         35.8875,        41.25564
       35.89583,           41.22,        35.90417,         41.1698,         35.9125,        41.12784,        35.92084,         41.0918
       35.92916,        41.04144,         35.9375,        41.01314,        35.94584,         40.9747,        35.95416,        40.93372
        35.9625,        40.90028,        35.97083,        40.86188,        35.97917,        40.82609,         35.9875,        40.78213
       35.99584,        40.73814,        36.00416,        40.70394,         36.0125,         40.6714,        36.02083,        40.62628
       36.02917,        40.58053,         36.0375,         40.5538,        36.04584,        40.50783,        36.05416,        40.47608
        36.0625,        40.43946,        36.07084,        40.39626,        36.07916,        40.34878,         36.0875,        40.31532
       36.09583,        40.28167,        36.10417,        40.23682,         36.1125,        40.19202,        36.12084,        40.16106
       36.12916,        40.12522,         36.1375,        40.07398,        36.14583,        40.04994,        36.15417,         40.0104
        36.1625,        39.96442,        36.17084,          39.921,        36.17916,        39.88647,         36.1875,        39.83891
       36.19584,        39.80422,        36.20416,        39.76503,         36.2125,        39.72066,        36.22083,        39.69348
       36.22917,        39.65376,         36.2375,        39.59625,        36.24584,          39.566,        36.25416,        39.53358
        36.2625,        39.48838,        36.27083,        39.45498,        36.27917,        39.40706,         36.2875,        39.36992
       36.29584,        39.32724,        36.30416,        39.28743,         36.3125,        39.24778,        36.32084,        39.21256
       36.32916,         39.1771,         36.3375,        39.13264,        36.34583,        39.10091,        36.35417,        39.05086
        36.3625,        39.02256,        36.37084,        38.98216,        36.37916,        38.94193,         36.3875,        38.90786
       36.39583,        38.85912,        36.40417,        38.82252,         36.4125,         38.7893,        36.42084,        38.75222
       36.42916,        38.71258,         36.4375,        38.67539,        36.44584,        38.64199,        36.45416,        38.59836
        36.4625,         38.5542,        36.47083,        38.52021,        36.47917,        38.47965,         36.4875,        38.44243
       36.49584,        38.40414,        36.50416,         38.3641,         36.5125,        38.33154,        36.52083,        38.28088
       36.52917,        38.24702,         36.5375,          38.215,        36.54584,        38.16973,        36.55416,        38.13335
        36.5625,        38.08553,        36.57084,        38.04235,        36.57916,         38.0112,         36.5875,        37.97937
       36.59583,         37.9358,        36.60417,        37.89925,         36.6125,        37.85906,        36.62084,        37.82626
       36.62916,         37.7865,         36.6375,        37.74723,        36.64583,        37.70068,        36.65417,        37.66944
        36.6625,        37.62766,        36.67084,        37.58399,        36.67916,          37.552,         36.6875,        37.50611
       36.69584,        37.46656,        36.70416,         37.4412,         36.7125,        37.40194,        36.72083,        37.36296
       36.72917,        37.31294,         36.7375,        37.28594,        36.74584,        37.24316,        36.75416,        37.19899
        36.7625,         37.1629,        36.77083,        37.13316,        36.77917,        37.08893,         36.7875,        37.05194
       36.79584,         37.0136,        36.80416,        36.97724,         36.8125,         36.9332,        36.82084,         36.8963
       36.82916,        36.84801,         36.8375,        36.81683,        36.84583,        36.77853,        36.85417,        36.74015
        36.8625,        36.69663,        36.87084,        36.65623,        36.87916,        36.62239,         36.8875,        36.58864
       36.89583,        36.54265,        36.90417,        36.49426,         36.9125,        36.46693,        36.92084,        36.42148
       36.92916,        36.38242,         36.9375,        36.34839,        36.94584,        36.31347,        36.95416,        36.27308
        36.9625,        36.23366,        36.97083,        36.20056,        36.97917,        36.16628,         36.9875,        36.11805
       36.99584,         36.0833,        37.00416,        36.04414,         37.0125,        36.00231,        37.02083,        35.96942
       37.02917,         35.9305,         37.0375,         35.8982,        37.04584,        35.85288,        37.05416,        35.81406
        37.0625,         35.7654,        37.07084,         35.7382,        37.07916,        35.70564,         37.0875,        35.65705
       37.09583,         35.6315,        37.10417,        35.59479,         37.1125,         35.5432,        37.12084,        35.50956
       37.12916,        35.47324,         37.1375,         35.4368,        37.14583,        35.40022,        37.15417,         35.3591
        37.1625,        35.31988,        37.17084,        35.28092,        37.17916,         35.2406,         37.1875,        35.20385
       37.19584,         35.1546,        37.20416,        35.13466,         37.2125,        35.08573,        37.22083,        35.04375
       37.22917,        35.01292,         37.2375,         34.9794,        37.24584,        34.92182,        37.25416,        34.88964
        37.2625,        34.85428,        37.27083,        34.81492,        37.27917,         34.7775,         37.2875,        34.73501
       37.29584,        34.69325,        37.30416,        34.66394,         37.3125,        34.62819,        37.32084,        34.58308
       37.32916,        34.54144,         37.3375,        34.49696,        37.34583,        34.47317,        37.35417,         34.4345
        37.3625,         34.4051,        37.37084,        34.35368,        37.37916,         34.3089,         37.3875,        34.27792
       37.39583,        34.23778,        37.40417,        34.19632,         37.4125,        34.15413,        37.42084,        34.12444
       37.42916,        34.07981,         37.4375,        34.03604,        37.44584,        34.00371,        37.45416,        33.96752
        37.4625,        33.92264,        37.47083,        33.88337,        37.47917,         33.8506,         37.4875,        33.80608
       37.49584,         33.7619,        37.50416,        33.71862,         37.5125,        33.67759,        37.52083,        33.64706
       37.52917,         33.6077,         37.5375,        33.57068,        37.54584,        33.52461,        37.55416,        33.48972
        37.5625,        33.44408,        37.57084,          33.406,        37.57916,        33.36598,         37.5875,        33.33058
       37.59583,        33.28628,        37.60417,        33.24134,         37.6125,        33.20782,        37.62084,        33.16824
       37.62916,         33.1145,         37.6375,        33.08303,        37.64583,         33.0413,        37.65417,         33.0107
        37.6625,        32.96582,        37.67084,        32.92656,        37.67916,        32.88624,         37.6875,        32.84106
       37.69584,         32.8025,        37.70416,        32.77484,         37.7125,         32.7316,        37.72083,         32.6806
       37.72917,        32.64429,         37.7375,        32.60321,        37.74584,        32.56022,        37.75416,        32.52827
        37.7625,        32.48225,        37.77083,        32.45352,        37.77917,        32.40722,         37.7875,        32.36354
       37.79584,        32.32148,        37.80416,        32.28424,         37.8125,        32.24646,        37.82084,        32.20086
       37.82916,        32.15787,         37.8375,        32.12204,        37.84583,        32.06913,        37.85417,         32.0462
        37.8625,          31.998,        37.87084,        31.96177,        37.87916,        31.91658,         37.8875,        31.87909
       37.89583,        31.83657,        37.90417,        31.79568,         37.9125,        31.75898,        37.92084,        31.71405
       37.92916,        31.68162,         37.9375,        31.63374,        37.94584,        31.59388,        37.95416,        31.56032
        37.9625,        31.51836,        37.97083,        31.46844,        37.97917,        31.43422,         37.9875,        31.39798
       37.99584,        31.35566,        38.00416,        31.30841,         38.0125,        31.26627,        38.02083,        31.23528
       38.02917,        31.19169,         38.0375,        31.15068,        38.04584,        31.10793,        38.05416,         31.0706
        38.0625,        31.02642,        38.07084,         30.9845,        38.07916,         30.9395,         38.0875,        30.90394
       38.09583,        30.86295,        38.10417,        30.81824,         38.1125,        30.77582,        38.12084,         30.7398
       38.12916,        30.70668,         38.1375,        30.65559,        38.14583,        30.60935,        38.15417,         30.5697
        38.1625,        30.53717,        38.17084,        30.49281,        38.17916,        30.44215,         38.1875,        30.40484
       38.19584,        30.36388,        38.20416,        30.32947,         38.2125,         30.2786,        38.22083,         30.2447
       38.22917,        30.20361,         38.2375,        30.16077,        38.24584,        30.11007,        38.25416,        30.07664
        38.2625,        30.03706,        38.27083,        29.99714,        38.27917,        29.95391,         38.2875,        29.92178
       38.29584,        29.87024,        38.30416,        29.82045,         38.3125,        29.78302,        38.32084,        29.74152
       38.32916,        29.71054,         38.3375,        29.65525,        38.34583,        29.61057,        38.35417,        29.58545
        38.3625,        29.53885,        38.37084,         29.4951,        38.37916,        29.45732,         38.3875,        29.41622
       38.39583,        29.37408,        38.40417,        29.32683,         38.4125,        29.28728,        38.42084,        29.24742
       38.42916,         29.2129,         38.4375,        29.16363,        38.44584,         29.1174,        38.45416,        29.07418
        38.4625,        29.04352,        38.47083,        28.99822,        38.47917,        28.96302,         38.4875,        28.91975
       38.49584,         28.8678,        38.50416,        28.82438,         38.5125,        28.78495,        38.52083,        28.74722
       38.52917,        28.70662,         38.5375,        28.66077,        38.54584,         28.6161,        38.55416,        28.57826
        38.5625,        28.53818,        38.57084,        28.50214,        38.57916,         28.4557,         38.5875,        28.41626
       38.59583,        28.36994,        38.60417,        28.32832,         38.6125,         28.2928,        38.62084,        28.24948
       38.62916,         28.2026,         38.6375,        28.16904,        38.64583,        28.12542,        38.65417,        28.08963
        38.6625,         28.0471,        38.67084,        28.00146,        38.67916,        27.95763,         38.6875,        27.92137
       38.69584,        27.88463,        38.70416,        27.83332,         38.7125,         27.7981,        38.72083,        27.74347
       38.72917,        27.71595,         38.7375,        27.66612,        38.74584,        27.62834,        38.75416,        27.58984
        38.7625,        27.54419,        38.77083,        27.49234,        38.77917,        27.46298,         38.7875,        27.42288
       38.79584,        27.38222,        38.80416,        27.32567,         38.8125,        27.29067,        38.82084,        27.25483
       38.82916,         27.2063,         38.8375,        27.16484,        38.84583,        27.13274,        38.85417,        27.08756
        38.8625,        27.04598,        38.87084,        26.99628,        38.87916,        26.95644,         38.8875,        26.91056
       38.89583,         26.8677,        38.90417,        26.82637,         38.9125,        26.78333,        38.92084,        26.73446
       38.92916,        26.69804,         38.9375,        26.65156,        38.94584,         26.6113,        38.95416,        26.56555
        38.9625,         26.5212,        38.97083,        26.47682,        38.97917,        26.43447,         38.9875,        26.38883
       38.99584,        26.34292,        39.00416,        26.29276,         39.0125,         26.2472,        39.02083,        26.19535
       39.02917,        26.15042,         39.0375,        26.11008,        39.04584,        26.05984,        39.05416,        26.00992
        39.0625,        25.97104,        39.07084,        25.91539,        39.07916,        25.87812,         39.0875,        25.82524
       39.09583,        25.77808,        39.10417,        25.73318,         39.1125,        25.69742,        39.12084,        25.64592
       39.12916,        25.59614,         39.1375,        25.56094,        39.14583,        25.51685,        39.15417,        25.46814
        39.1625,        25.42142,        39.17084,        25.37898,        39.17916,        25.33218,         39.1875,        25.29724
       39.19584,        25.24414,        39.20416,        25.19142,         39.2125,        25.14772,        39.22083,        25.10026
       39.22917,          25.059,         39.2375,        25.00439,        39.24584,        24.96726,        39.25416,         24.9143
        39.2625,         24.8691,        39.27083,        24.82725,        39.27917,        24.77568,         39.2875,        24.72186
       39.29584,        24.67306,        39.30416,        24.62956,         39.3125,        24.57664,        39.32084,        24.53664
       39.32916,        24.48972,         39.3375,        24.45048,        39.34583,        24.39733,        39.35417,        24.35443
        39.3625,        24.29882,        39.37084,        24.25474,        39.37916,        24.21477,         39.3875,        24.16839
       39.39583,        24.12323,        39.40417,         24.0724,         39.4125,         24.0288,        39.42084,        23.97894
       39.42916,        23.93712,         39.4375,        23.88525,        39.44584,        23.85005,        39.45416,        23.80337
        39.4625,        23.76447,        39.47083,        23.72087,        39.47917,        23.68037,         39.4875,        23.63021
       39.49584,         23.5885,        39.50416,        23.54399,         39.5125,        23.49805,        39.52083,        23.45044
       39.52917,        23.41429,         39.5375,         23.3598,        39.54584,        23.31678,        39.55416,        23.27538
        39.5625,         23.2283,        39.57084,        23.18081,        39.57916,         23.1417,         39.5875,        23.09456
       39.59583,        23.04998,        39.60417,         22.9979,         39.6125,        22.95682,        39.62084,        22.92165
       39.62916,        22.87882,         39.6375,         22.8356,        39.64583,        22.79004,        39.65417,        22.74863
        39.6625,        22.70593,        39.67084,         22.6541,        39.67916,         22.6189,         39.6875,        22.56892
       39.69584,        22.53325,        39.70416,         22.4828,         39.7125,        22.43935,        39.72083,        22.40787
       39.72917,        22.35881,         39.7375,         22.3192,        39.74584,        22.27562,        39.75416,        22.22496
        39.7625,        22.19084,        39.77083,        22.13536,        39.77917,         22.1135,         39.7875,        22.05886
       39.79584,        22.02224,        39.80416,        21.97022,         39.8125,        21.93737,        39.82084,        21.89346
       39.82916,        21.85106,         39.8375,        21.81715,        39.84583,         21.7736,        39.85417,        21.72816
        39.8625,        21.69826,        39.87084,        21.64919,        39.87916,        21.60366,         39.8875,        21.56242
       39.89583,        21.51902,        39.90417,        21.48616,         39.9125,        21.44254,        39.92084,        21.39297
       39.92916,        21.35816,         39.9375,        21.31502,        39.94584,        21.27684,        39.95416,        21.23748
        39.9625,        21.20298,        39.97083,        21.15066,        39.97917,        21.09714,         39.9875,         21.0743
       39.99584,        21.03254,        40.00416,        20.99037,         40.0125,        20.95379,        40.02083,        20.91434
       40.02917,        20.87489,         40.0375,        20.83277,        40.04584,        20.78881,        40.05416,        20.75796
        40.0625,        20.71763,        40.07084,        20.67742,        40.07916,        20.64103,         40.0875,        20.59421
       40.09583,        20.56225,        40.10417,        20.51618,         40.1125,         20.4749,        40.12084,        20.43793
       40.12916,        20.39999,         40.1375,        20.36374,        40.14583,         20.3265,        40.15417,        20.28011
        40.1625,        20.24592,        40.17084,        20.20708,        40.17916,        20.15861,         40.1875,         20.1177
       40.19584,        20.07937,        40.20416,         20.0363,         40.2125,        20.00201,        40.22083,        19.96375
       40.22917,        19.92259,         40.2375,        19.88564,        40.24584,        19.84379,        40.25416,        19.80874
        40.2625,        19.76104,        40.27083,        19.72841,        40.27917,        19.69375,         40.2875,        19.65319
       40.29584,        19.61299,        40.30416,         19.5684,         40.3125,        19.53013,        40.32084,        19.49614
       40.32916,        19.45656,         40.3375,        19.40831,        40.34583,         19.3791,        40.35417,        19.34191
        40.3625,        19.29725,        40.37084,        19.26291,        40.37916,        19.21182,         40.3875,        19.18222
       40.39583,         19.1441,        40.40417,        19.10612,         40.4125,        19.06389,        40.42084,        19.02854
       40.42916,        18.99074,         40.4375,        18.94863,        40.44584,        18.91023,        40.45416,        18.87162
        40.4625,        18.83471,        40.47083,        18.79316,        40.47917,         18.7536,         40.4875,        18.71126
       40.49584,        18.67139,        40.50416,        18.63492,         40.5125,        18.59149,        40.52083,        18.55466
       40.52917,        18.52155,         40.5375,        18.47743,        40.54584,        18.43849,        40.55416,        18.39873
        40.5625,        18.36686,        40.57084,        18.31405,        40.57916,        18.27512,         40.5875,        18.24176
       40.59583,        18.20203,        40.60417,        18.16474,         40.6125,        18.11724,        40.62084,        18.08786
       40.62916,         18.0418,         40.6375,        18.00544,        40.64583,        17.96309,        40.65417,        17.92487
        40.6625,        17.89155,        40.67084,        17.85349,        40.67916,        17.80756,         40.6875,         17.7671
       40.69584,        17.73086,        40.70416,        17.68579,         40.7125,        17.64591,        40.72083,        17.60503
       40.72917,         17.5694,         40.7375,        17.52949,        40.74584,        17.49214,        40.75416,        17.44868
        40.7625,        17.41099,        40.77083,        17.37403,        40.77917,        17.32609,         40.7875,        17.29091
       40.79584,         17.2433,        40.80416,        17.20931,         40.8125,        17.16686,        40.82084,        17.13484
       40.82916,        17.09755,         40.8375,        17.04629,        40.84583,         17.0126,        40.85417,        16.96804
        40.8625,        16.93172,        40.87084,        16.89165,        40.87916,        16.85115,         40.8875,        16.81059
       40.89583,        16.77216,        40.90417,         16.7263,         40.9125,        16.69043,        40.92084,        16.64024
       40.92916,        16.61226,         40.9375,        16.57176,        40.94584,        16.52541,        40.95416,        16.49074
        40.9625,        16.44228,        40.97083,        16.41304,        40.97917,        16.36666,         40.9875,        16.33402
       40.99584,        16.29059,        41.00416,        16.23937,         41.0125,        16.21331,        41.02083,        16.16388
       41.02917,        16.13106,         41.0375,        16.08163,        41.04584,        16.04056,        41.05416,        15.99952
        41.0625,        15.96469,        41.07084,         15.9175,        41.07916,        15.87658,         41.0875,        15.84372
       41.09583,        15.79016,        41.10417,        15.76138,         41.1125,         15.7162,        41.12084,        15.67711
       41.12916,        15.63206,         41.1375,        15.59186,        41.14583,        15.54712,        41.15417,        15.51475
        41.1625,         15.4625,        41.17084,        15.42486,        41.17916,        15.39249,         41.1875,         15.3373
       41.19584,        15.30733,        41.20416,        15.26017,         41.2125,        15.21273,        41.22083,        15.17696
       41.22917,        15.14176,         41.2375,        15.10118,        41.24584,        15.05724,        41.25416,        15.02094
        41.2625,        14.98059,        41.27083,        14.93623,        41.27917,        14.89883,         41.2875,        14.84854
       41.29584,        14.81428,        41.30416,        14.77391,         41.3125,        14.72548,        41.32084,         14.6848
       41.32916,        14.64577,         41.3375,        14.60291,        41.34583,        14.56401,        41.35417,        14.51939
        41.3625,         14.4864,        41.37084,        14.44178,        41.37916,        14.40261,         41.3875,        14.36418
       41.39583,        14.31878,        41.40417,        14.27875,         41.4125,        14.24344,        41.42084,        14.19815
       41.42916,        14.15944,         41.4375,        14.11688,        41.44584,        14.07695,        41.45416,        14.02999
        41.4625,        13.98931,        41.47083,        13.94438,        41.47917,        13.90878,         41.4875,        13.85516
       41.49584,        13.82145,        41.50416,        13.78473,         41.5125,        13.73938,        41.52083,        13.70197
       41.52917,        13.66386,         41.5375,        13.61557,        41.54584,         13.5775,        41.55416,        13.53162
        41.5625,        13.50024,        41.57084,        13.45228,        41.57916,         13.4115,         41.5875,        13.36878
       41.59583,        13.32928,        41.60417,        13.28152,         41.6125,        13.24436,        41.62084,        13.20565
       41.62916,        13.15735,         41.6375,        13.12124,        41.64583,          13.082,        41.65417,        13.03811
        41.6625,        13.00409,        41.67084,        12.95993,        41.67916,        12.91405,         41.6875,        12.87716
       41.69584,        12.82844,        41.70416,        12.78952,         41.7125,        12.73981,        41.72083,        12.71023
       41.72917,        12.66663,         41.7375,        12.62634,        41.74584,         12.5778,        41.75416,        12.54747
        41.7625,        12.50319,        41.77083,        12.46232,        41.77917,        12.41695,         41.7875,         12.3718
       41.79584,         12.3329,        41.80416,         12.2907,         41.8125,        12.26107,        41.82084,        12.21287
       41.82916,        12.16557,         41.8375,         12.1306,        41.84583,        12.08467,        41.85417,        12.05112
        41.8625,        12.00982,        41.87084,        11.96623,        41.87916,        11.92021,         41.8875,        11.88505
       41.89583,         11.8342,        41.90417,        11.78538,         41.9125,        11.75425,        41.92084,        11.71486
       41.92916,        11.66701,         41.9375,         11.6286,        41.94584,        11.59086,        41.95416,        11.54236
        41.9625,        11.49977,        41.97083,        11.45804,        41.97917,        11.41697,         41.9875,        11.37404
       41.99584,        11.33131,        42.00416,        11.28969,         42.0125,        11.25388,        42.02083,        11.20187
       42.02917,        11.16033,         42.0375,        11.12224,        42.04584,        11.08599,        42.05416,        11.04444
        42.0625,        11.00073,        42.07084,        10.95173,        42.07916,          10.914,         42.0875,        10.87084
       42.09583,        10.83756,        42.10417,        10.78861,         42.1125,        10.74515,        42.12084,        10.70487
       42.12916,          10.671,         42.1375,        10.63129,        42.14583,        10.58274,        42.15417,        10.53723
        42.1625,        10.50476,        42.17084,        10.45828,        42.17916,        10.41793,         42.1875,        10.37296
       42.19584,        10.33859,        42.20416,        10.29373,         42.2125,        10.25626,        42.22083,         10.2182
       42.22917,        10.16998,         42.2375,        10.13358,        42.24584,        10.08835,        42.25416,        10.04518
        42.2625,        10.00772,        42.27083,        9.968406,        42.27917,        9.922975,         42.2875,        9.879794
       42.29584,         9.84317,        42.30416,        9.800949,         42.3125,        9.757964,        42.32084,        9.715499
       42.32916,        9.673324,         42.3375,        9.628726,        42.34583,        9.591492,        42.35417,        9.550489
        42.3625,        9.510202,        42.37084,        9.462472,        42.37916,        9.424318,         42.3875,        9.386789
       42.39583,        9.338508,        42.40417,        9.297169,         42.4125,        9.257053,        42.42084,        9.214054
       42.42916,        9.167957,         42.4375,        9.132447,        42.44584,        9.085749,        42.45416,        9.045906
        42.4625,        9.008288,        42.47083,        8.967484,        42.47917,        8.923316,         42.4875,        8.880389
       42.49584,        8.846676,        42.50416,         8.79982,         42.5125,        8.755194,        42.52083,        8.713524
       42.52917,        8.668588,         42.5375,        8.628116,        42.54584,        8.586079,        42.55416,        8.542428
        42.5625,        8.501899,        42.57084,        8.457795,        42.57916,        8.411261,         42.5875,        8.376151
       42.59583,        8.333528,        42.60417,        8.281514,         42.6125,         8.25091,        42.62084,         8.20464
       42.62916,        8.164394,         42.6375,        8.121474,        42.64583,         8.08456,        42.65417,        8.044292
        42.6625,        8.000822,        42.67084,        7.953757,        42.67916,        7.916266,         42.6875,        7.876505
       42.69584,        7.835202,        42.70416,        7.796034,         42.7125,        7.748522,        42.72083,        7.706536
       42.72917,        7.667299,         42.7375,         7.62226,        42.74584,        7.583662,        42.75416,        7.540579
        42.7625,        7.498542,        42.77083,        7.458699,        42.77917,        7.414472,         42.7875,        7.374236
       42.79584,        7.329372,        42.80416,         7.28846,         42.8125,        7.247964,        42.82084,        7.204784
       42.82916,        7.160875,         42.8375,        7.124822,        42.84583,        7.073428,        42.85417,            7.04
        42.8625,         6.99305,        42.87084,        6.956109,        42.87916,        6.914326,         42.8875,        6.869306
       42.89583,        6.829111,        42.90417,        6.785828,         42.9125,         6.74855,        42.92084,        6.700586
       42.92916,        6.661694,         42.9375,        6.624843,        42.94584,        6.579734,        42.95416,         6.53452
        42.9625,        6.493808,        42.97083,        6.452948,        42.97917,         6.40902,         42.9875,        6.368259
       42.99584,        6.326574,        43.00416,        6.282132,         43.0125,         6.24476,        43.02083,        6.204402
       43.02917,        6.165859,         43.0375,        6.119534,        43.04584,        6.074307,        43.05416,        6.035648
        43.0625,        5.995171,        43.07084,        5.949521,        43.07916,        5.908723,         43.0875,        5.868014
       43.09583,         5.82253,        43.10417,        5.780774,         43.1125,        5.734443,        43.12084,        5.697883
       43.12916,        5.662275,         43.1375,        5.607245,        43.14583,        5.568888,        43.15417,        5.533206
        43.1625,        5.488391,        43.17084,        5.447162,        43.17916,        5.399207,         43.1875,        5.366758
       43.19584,         5.31805,        43.20416,        5.282861,         43.2125,         5.23999,        43.22083,        5.198141
       43.22917,        5.153207,         43.2375,        5.117388,        43.24584,        5.071116,        43.25416,        5.033576
        43.2625,        4.991128,        43.27083,         4.94717,        43.27917,        4.907466,         43.2875,        4.862222
       43.29584,        4.823142,        43.30416,        4.781156,         43.3125,        4.732494,        43.32084,        4.697534
       43.32916,        4.648614,         43.3375,         4.61477,        43.34583,        4.571478,        43.35417,         4.53016
        43.3625,        4.488359,        43.37084,        4.445686,        43.37916,        4.401572,         43.3875,        4.362436
       43.39583,        4.324143,        43.40417,         4.27362,         43.4125,         4.23584,        43.42084,        4.196428
       43.42916,        4.156528,         43.4375,         4.11209,        43.44584,        4.063916,        43.45416,        4.025159
        43.4625,        3.984386,        43.47083,        3.948405,        43.47917,        3.905625,         43.4875,        3.857134
       43.49584,        3.816819,        43.50416,         3.77674,         43.5125,          3.7335,        43.52083,        3.695606
       43.52917,         3.64628,         43.5375,        3.609788,        43.54584,        3.569102,        43.55416,        3.525497
        43.5625,        3.487115,        43.57084,        3.444294,        43.57916,        3.402383,         43.5875,          3.3569
       43.59583,        3.321786,        43.60417,        3.276709,         43.6125,        3.236798,        43.62084,        3.191024
       43.62916,        3.150164,         43.6375,        3.104254,        43.64583,        3.065959,        43.65417,        3.025726
        43.6625,        2.978477,        43.67084,         2.93788,        43.67916,        2.897728,         43.6875,        2.859921
       43.69584,        2.813164,        43.70416,        2.767382,         43.7125,          2.7293,        43.72083,         2.68396
       43.72917,        2.650668,         43.7375,         2.60867,        43.74584,        2.565487,        43.75416,        2.523028
        43.7625,        2.473728,        43.77083,        2.436081,        43.77917,        2.396663,         43.7875,        2.356515
       43.79584,        2.317342,        43.80416,        2.274836,         43.8125,         2.23663,        43.82084,        2.195896
       43.82916,        2.142598,         43.8375,        2.108356,        43.84583,        2.066334,        43.85417,        2.025903
        43.8625,        1.984291,        43.87084,        1.943457,        43.87916,         1.90235,         43.8875,        1.852506
       43.89583,        1.813612,        43.90417,        1.764198,         43.9125,        1.731995,        43.92084,        1.688221
       43.92916,        1.639928,         43.9375,        1.604343,        43.94584,        1.561819,        43.95416,        1.523106
        43.9625,        1.482356,        43.97083,         1.44287,        43.97917,        1.398878,         43.9875,        1.351205
*Amplitude, name=Temp_up
          0.004,              0.,     0.004166667,              0.,          0.0125,              0.,      0.02083334,              0.
     0.02916666,              0.,          0.0375,              0.,      0.04583334,              0.,      0.05416668,              0.
         0.0625,              0.,      0.07083332,              0.,      0.07916666,              0.,          0.0875,              0.
     0.09583332,              0.,       0.1041666,              0.,          0.1125,              0.,       0.1208333,              0.
      0.1291666,              0.,          0.1375,              0.,       0.1458333,              0.,       0.1541667,              0.
         0.1625,              0.,       0.1708334,              0.,       0.1791666,              0.,          0.1875,              0.
      0.1958334,              0.,       0.2041667,              0.,          0.2125,              0.,       0.2208333,              0.
      0.2291667,              0.,          0.2375,              0.,       0.2458334,     0.003880882,       0.2541666,      0.03288784
         0.2625,      0.06085043,       0.2708334,      0.08755981,       0.2791667,       0.1010976,          0.2875,       0.1410695
      0.2958333,       0.1589685,       0.3041667,       0.2035383,          0.3125,       0.2266516,       0.3208333,       0.2605045
      0.3291667,       0.2806494,          0.3375,       0.3219883,       0.3458333,       0.3578644,       0.3541666,       0.3874594
         0.3625,       0.4206913,       0.3708334,        0.443329,       0.3791666,       0.4951368,          0.3875,       0.5153083
      0.3958334,        0.555812,       0.4041666,       0.5838806,          0.4125,        0.626636,       0.4208333,       0.6656936
      0.4291667,        0.697587,          0.4375,       0.7277284,       0.4458333,       0.7746687,       0.4541667,       0.8104624
         0.4625,       0.8511414,       0.4708334,       0.8866563,       0.4791666,        0.935257,          0.4875,       0.9686203
      0.4958334,       0.9928364,       0.5041666,        1.041163,          0.5125,        1.080735,       0.5208332,        1.116602
      0.5291666,        1.163883,          0.5375,        1.203349,       0.5458334,        1.248713,       0.5541668,        1.298578
         0.5625,        1.338529,       0.5708332,        1.369604,       0.5791666,        1.411677,          0.5875,        1.451675
      0.5958334,        1.495186,       0.6041668,        1.535342,          0.6125,        1.587191,       0.6208334,        1.626333
      0.6291666,         1.66888,          0.6375,        1.717145,       0.6458332,        1.753418,       0.6541666,        1.797729
         0.6625,        1.843131,       0.6708334,        1.888828,       0.6791668,        1.915503,          0.6875,        1.972578
      0.6958332,        2.015886,       0.7041666,        2.065372,          0.7125,        2.095086,       0.7208334,        2.136174
      0.7291668,        2.187501,          0.7375,        2.230288,       0.7458334,        2.274448,       0.7541666,        2.314367
         0.7625,        2.355484,       0.7708332,        2.402442,       0.7791666,        2.446308,          0.7875,        2.497802
      0.7958334,        2.537124,       0.8041668,         2.57787,          0.8125,        2.628879,       0.8208332,        2.669837
      0.8291666,        2.707285,          0.8375,          2.7518,       0.8458334,        2.802292,       0.8541668,         2.84639
         0.8625,         2.89481,       0.8708332,        2.939964,       0.8791668,        2.977832,          0.8875,        3.022714
      0.8958332,        3.067325,       0.9041666,        3.113449,          0.9125,        3.157164,       0.9208334,        3.198833
      0.9291668,        3.248096,          0.9375,        3.292866,       0.9458332,        3.325787,       0.9541666,        3.380467
         0.9625,        3.422622,       0.9708334,        3.471182,       0.9791668,        3.517174,          0.9875,        3.555515
      0.9958332,         3.60506,        1.004167,         3.65157,          1.0125,        3.691836,        1.020833,        3.740579
       1.029167,         3.77673,          1.0375,        3.816527,        1.045834,        3.875298,        1.054167,        3.911491
         1.0625,        3.957743,        1.070833,        4.006608,        1.079166,        4.048276,          1.0875,        4.094768
       1.095833,        4.136562,        1.104166,        4.187234,          1.1125,        4.227746,        1.120833,        4.264724
       1.129167,        4.310448,          1.1375,        4.349322,        1.145834,        4.397638,        1.154167,        4.443952
         1.1625,        4.487958,        1.170834,        4.534813,        1.179167,        4.570964,          1.1875,        4.620194
       1.195833,        4.666214,        1.204166,        4.698474,          1.2125,        4.747686,        1.220833,        4.795468
       1.229166,        4.841708,          1.2375,        4.870465,        1.245833,        4.914056,        1.254167,         4.96664
         1.2625,        5.015435,        1.270834,        5.061974,        1.279167,        5.100472,          1.2875,        5.145911
       1.295834,        5.186548,        1.304167,        5.235718,          1.3125,        5.281124,        1.320833,        5.317818
       1.329166,        5.368504,          1.3375,        5.413624,        1.345833,        5.454782,        1.354166,        5.498761
         1.3625,        5.536463,        1.370833,        5.577524,        1.379167,         5.62812,          1.3875,        5.663736
       1.395834,        5.709064,        1.404167,        5.757737,          1.4125,        5.797988,        1.420834,         5.84447
       1.429167,        5.882461,          1.4375,        5.932859,        1.445833,        5.978481,        1.454166,        6.021648
         1.4625,        6.058912,        1.470833,        6.104668,        1.479166,        6.156931,          1.4875,        6.188599
       1.495833,        6.236172,        1.504167,        6.279648,          1.5125,        6.323804,        1.520834,        6.358408
       1.529167,        6.409189,          1.5375,        6.453912,        1.545834,         6.48967,        1.554167,        6.532465
         1.5625,         6.58052,        1.570833,        6.626882,        1.579166,          6.6627,          1.5875,        6.707126
       1.595833,        6.762412,        1.604166,        6.797312,          1.6125,        6.838898,        1.620833,        6.877597
       1.629167,        6.926657,          1.6375,        6.969376,        1.645834,        7.010931,        1.654167,        7.059447
         1.6625,        7.100803,        1.670834,         7.14263,        1.679166,         7.17843,          1.6875,        7.233035
       1.695834,        7.272648,        1.704166,        7.309657,          1.7125,        7.356874,        1.720833,        7.396312
       1.729166,         7.44288,          1.7375,        7.482942,        1.745833,        7.530306,        1.754167,        7.571597
         1.7625,        7.621676,        1.770834,        7.661261,        1.779167,        7.702054,          1.7875,        7.744188
       1.795834,         7.78921,        1.804166,        7.826068,          1.8125,         7.87174,        1.820834,        7.914188
       1.829166,        7.957551,          1.8375,          8.0084,        1.845833,        8.032429,        1.854166,        8.084106
         1.8625,        8.126832,        1.870833,        8.168902,        1.879167,        8.215246,          1.8875,        8.252129
       1.895834,        8.297795,        1.904167,         8.33579,          1.9125,        8.379324,        1.920834,        8.424464
       1.929166,        8.467506,          1.9375,        8.504591,        1.945834,        8.551518,        1.954166,         8.59204
         1.9625,        8.632106,        1.970833,        8.683382,        1.979166,        8.713968,          1.9875,        8.759835
       1.995833,        8.808434,        2.004166,        8.845812,          2.0125,        8.886801,        2.020833,        8.931768
       2.029167,        8.972041,          2.0375,        9.013715,        2.045834,        9.059399,        2.054166,        9.099422
         2.0625,        9.133051,        2.070834,        9.176528,        2.079166,         9.22116,          2.0875,        9.271405
       2.095833,        9.319889,        2.104167,        9.358476,          2.1125,        9.392235,        2.120834,        9.441656
       2.129166,        9.489809,          2.1375,        9.531816,        2.145833,        9.566094,        2.154167,        9.613062
         2.1625,         9.66085,        2.170834,         9.68161,        2.179166,        9.734101,          2.1875,        9.783972
       2.195834,        9.825978,        2.204166,        9.873058,          2.2125,        9.908262,        2.220833,        9.951446
       2.229167,        9.993384,          2.2375,        10.03835,        2.245834,        10.07621,        2.254166,        10.11342
         2.2625,        10.16186,        2.270833,        10.20192,        2.279167,        10.23664,          2.2875,        10.28054
       2.295834,         10.3312,        2.304166,        10.36401,          2.3125,        10.40863,        2.320834,        10.44886
       2.329166,        10.50098,          2.3375,         10.5389,        2.345833,        10.57845,        2.354167,        10.62065
         2.3625,        10.65826,        2.370834,        10.70462,        2.379166,        10.74441,          2.3875,        10.78572
       2.395833,         10.8217,        2.404167,        10.87272,          2.4125,        10.91056,        2.420834,        10.95161
       2.429166,        11.00067,          2.4375,        11.03783,        2.445834,        11.07744,        2.454166,        11.12081
         2.4625,        11.16286,        2.470833,        11.20767,        2.479167,        11.24519,          2.4875,        11.29241
       2.495834,        11.33344,        2.504166,         11.3757,          2.5125,        11.41917,        2.520833,        11.45658
       2.529167,        11.49759,          2.5375,        11.54344,        2.545834,        11.58161,        2.554166,          11.623
         2.5625,        11.66866,        2.570834,        11.71258,        2.579166,         11.7583,          2.5875,        11.79708
       2.595833,        11.83637,        2.604167,        11.88063,          2.6125,        11.91501,        2.620834,        11.95058
       2.629166,        12.00193,          2.6375,         12.0433,        2.645833,        12.08667,        2.654167,         12.1248
         2.6625,        12.16951,        2.670834,        12.21544,        2.679166,        12.24831,          2.6875,        12.29229
       2.695834,        12.33385,        2.704166,        12.37139,          2.7125,        12.40866,        2.720833,        12.46096
       2.729167,        12.50595,          2.7375,        12.54823,        2.745834,        12.58413,        2.754166,        12.63105
         2.7625,        12.67414,        2.770833,        12.71365,        2.779167,        12.75916,          2.7875,        12.80169
       2.795834,        12.84363,        2.804166,        12.87676,          2.8125,        12.92297,        2.820834,         12.9677
       2.829166,        13.01394,          2.8375,        13.05261,        2.845833,         13.0887,        2.854167,        13.13076
         2.8625,        13.17136,        2.870834,        13.21618,        2.879166,        13.25418,          2.8875,        13.29968
       2.895833,        13.34375,        2.904167,        13.37755,          2.9125,        13.42098,        2.920834,        13.45946
       2.929166,        13.50752,          2.9375,        13.54463,        2.945834,        13.59257,        2.954166,        13.63396
         2.9625,        13.67694,        2.970833,        13.70555,        2.979167,        13.75582,          2.9875,        13.79498
       2.995834,         13.8357,        3.004166,        13.87418,          3.0125,          13.918,        3.020833,        13.96443
       3.029167,        14.00036,          3.0375,        14.04388,        3.045834,        14.09127,        3.054166,        14.11426
         3.0625,           14.17,        3.070834,        14.21149,        3.079166,        14.25539,          3.0875,        14.28801
       3.095833,        14.33858,        3.104167,        14.37854,          3.1125,        14.42093,        3.120834,        14.45334
       3.129166,        14.50544,          3.1375,        14.54245,        3.145833,        14.57977,        3.154167,        14.62418
         3.1625,        14.66584,        3.170834,        14.70927,        3.179166,        14.74543,          3.1875,        14.78737
       3.195834,         14.8352,        3.204167,         14.8748,          3.2125,        14.90592,        3.220833,         14.9468
       3.229167,         15.0046,          3.2375,        15.04566,        3.245834,        15.08769,        3.254166,        15.11801
         3.2625,        15.16351,        3.270833,        15.20532,        3.279167,        15.24306,          3.2875,         15.2858
       3.295833,        15.32746,        3.304166,        15.36487,          3.3125,        15.40643,        3.320834,        15.45664
       3.329167,        15.48966,          3.3375,        15.53903,        3.345833,        15.57842,        3.354167,        15.62301
         3.3625,        15.65908,        3.370834,         15.7007,        3.379166,        15.73879,          3.3875,        15.78552
       3.395833,        15.82648,        3.404167,         15.8717,          3.4125,        15.91682,        3.420833,        15.95334
       3.429166,        15.99238,          3.4375,        16.03491,        3.445834,        16.07104,        3.454167,        16.12009
         3.4625,        16.15772,        3.470833,        16.20096,        3.479167,        16.24189,          3.4875,        16.28056
       3.495834,        16.32825,        3.504166,        16.36921,          3.5125,        16.40735,        3.520833,        16.45082
       3.529167,        16.49106,          3.5375,        16.52907,        3.545833,        16.57512,        3.554166,        16.61968
         3.5625,         16.6617,        3.570834,        16.69644,        3.579167,         16.7396,          3.5875,        16.78478
       3.595833,        16.82596,        3.604167,        16.86726,          3.6125,        16.89895,        3.620834,        16.94926
       3.629166,        16.98698,          3.6375,        17.03332,        3.645833,        17.07513,        3.654167,        17.12145
         3.6625,        17.16034,        3.670833,        17.20534,        3.679166,        17.24049,          3.6875,        17.28076
       3.695834,        17.32263,        3.704167,        17.37444,          3.7125,        17.40482,        3.720833,        17.44656
       3.729167,        17.49291,          3.7375,        17.52856,        3.745834,        17.57467,        3.754166,        17.61487
         3.7625,        17.65369,        3.770833,        17.69828,        3.779167,        17.74141,          3.7875,        17.77621
       3.795833,        17.83065,        3.804166,        17.86349,          3.8125,        17.90788,        3.820834,        17.95064
       3.829167,        17.99191,          3.8375,        18.02696,        3.845833,         18.0685,        3.854167,        18.11316
         3.8625,        18.15234,        3.870834,        18.19635,        3.879166,        18.23841,          3.8875,        18.28181
       3.895833,        18.31414,        3.904167,        18.36949,          3.9125,        18.40456,        3.920833,        18.45024
       3.929166,        18.49629,          3.9375,        18.53062,        3.945834,        18.57157,        3.954167,        18.61504
         3.9625,         18.6557,        3.970833,        18.69606,        3.979167,        18.73395,          3.9875,        18.78014
       3.995834,        18.81426,        4.004166,        18.85469,          4.0125,        18.90352,        4.020834,         18.9455
       4.029167,         18.9822,          4.0375,        19.03148,        4.045833,        19.07322,        4.054167,        19.11455
         4.0625,        19.16326,        4.070833,        19.19656,        4.079167,        19.23641,          4.0875,        19.27625
       4.095833,        19.32454,        4.104166,        19.36269,          4.1125,        19.39513,        4.120834,        19.43622
       4.129166,        19.48372,          4.1375,        19.53566,        4.145834,        19.56446,        4.154167,        19.61703
         4.1625,        19.66079,        4.170833,        19.68948,        4.179167,        19.73238,          4.1875,        19.77219
       4.195833,        19.81662,        4.204167,         19.8537,          4.2125,        19.89935,        4.220833,        19.94081
       4.229166,        19.97804,          4.2375,        20.02248,        4.245834,        20.05861,        4.254166,        20.10928
         4.2625,        20.14136,        4.270834,        20.18722,        4.279167,        20.23238,          4.2875,        20.27964
       4.295833,        20.31913,        4.304167,        20.36189,          4.3125,        20.40771,        4.320833,         20.4422
       4.329167,        20.48566,          4.3375,        20.52736,        4.345833,        20.56891,        4.354166,        20.60159
         4.3625,        20.65011,        4.370834,        20.68936,        4.379166,        20.73335,          4.3875,         20.7743
       4.395834,        20.81892,        4.404167,        20.85647,          4.4125,        20.90314,        4.420833,        20.93941
       4.429167,        20.98374,          4.4375,        21.02461,        4.445833,        21.06838,        4.454167,        21.10588
         4.4625,         21.1463,        4.470833,        21.19613,        4.479166,        21.23445,          4.4875,        21.27494
       4.495834,        21.31768,        4.504166,        21.35264,          4.5125,        21.39913,        4.520834,         21.4365
       4.529167,        21.47989,          4.5375,        21.52612,        4.545833,        21.56326,        4.554167,           21.61
         4.5625,        21.64708,        4.570833,        21.69532,        4.579167,        21.72596,          4.5875,        21.77034
       4.595833,         21.8172,        4.604166,        21.85885,          4.6125,        21.90093,        4.620834,        21.93861
       4.629166,        21.97827,          4.6375,         22.0252,        4.645834,        22.07069,        4.654167,        22.10168
         4.6625,        22.15181,        4.670833,        22.18606,        4.679167,        22.22906,          4.6875,        22.27336
       4.695833,        22.31695,        4.704167,        22.35629,          4.7125,        22.40064,        4.720833,        22.44293
       4.729166,         22.4819,          4.7375,        22.52287,        4.745834,        22.56964,        4.754166,        22.60203
         4.7625,          22.644,        4.770834,        22.68661,        4.779167,        22.73092,          4.7875,        22.76803
       4.795833,        22.80441,        4.804167,        22.85014,          4.8125,        22.89449,        4.820833,        22.93498
       4.829167,        22.97596,          4.8375,        23.01006,        4.845833,        23.05836,        4.854166,         23.1023
         4.8625,        23.13727,        4.870834,        23.18364,        4.879166,        23.22305,          4.8875,        23.26828
       4.895834,        23.30845,        4.904167,        23.34929,          4.9125,        23.39104,        4.920833,        23.42693
       4.929167,        23.46853,          4.9375,        23.51674,        4.945833,        23.55906,        4.954167,        23.59526
         4.9625,        23.63825,        4.970833,        23.68025,        4.979166,        23.72021,          4.9875,        23.75748
       4.995834,        23.80986,        5.004166,        23.85209,          5.0125,        23.89165,        5.020834,        23.93403
       5.029167,        23.97512,          5.0375,        24.01858,        5.045833,        24.05757,        5.054167,        24.09159
         5.0625,        24.13532,        5.070833,        24.18229,        5.079167,        24.22295,          5.0875,        24.26428
       5.095833,        24.30443,        5.104166,        24.33747,          5.1125,        24.38754,        5.120834,        24.43038
       5.129166,        24.47194,          5.1375,         24.5094,        5.145834,        24.54567,        5.154167,        24.60047
         5.1625,        24.63535,        5.170833,         24.6842,        5.179167,        24.71382,          5.1875,        24.76926
       5.195833,        24.80322,        5.204167,        24.84332,          5.2125,        24.88792,        5.220833,        24.92989
       5.229166,        24.96866,          5.2375,        25.01038,        5.245834,        25.05235,        5.254166,          25.093
         5.2625,        25.14089,        5.270834,        25.18053,        5.279168,        25.22927,          5.2875,        25.26197
       5.295832,        25.29701,        5.304168,        25.34726,          5.3125,        25.39101,        5.320832,         25.4304
       5.329168,        25.47195,          5.3375,        25.51483,        5.345832,        25.55798,        5.354166,        25.59287
         5.3625,        25.64058,        5.370834,        25.68234,        5.379166,        25.71921,          5.3875,        25.76697
       5.395834,        25.80287,        5.404168,        25.84488,          5.4125,        25.89061,        5.420832,        25.93123
       5.429168,        25.97637,          5.4375,        26.00712,        5.445832,        26.05977,        5.454168,        26.09435
         5.4625,        26.13994,        5.470832,        26.18096,        5.479166,         26.2215,          5.4875,        26.25976
       5.495834,        26.30315,        5.504166,         26.3445,          5.5125,        26.38789,        5.520834,        26.41921
       5.529168,        26.47016,          5.5375,        26.51254,        5.545832,        26.55071,        5.554168,        26.59005
         5.5625,        26.63173,        5.570832,        26.67684,        5.579168,        26.71806,          5.5875,        26.75904
       5.595832,        26.79762,        5.604166,        26.84544,          5.6125,        26.88468,        5.620834,        26.92658
       5.629166,        26.96301,          5.6375,        27.01022,        5.645834,        27.05277,        5.654168,         27.0925
         5.6625,        27.13875,        5.670832,         27.1829,        5.679168,        27.22164,          5.6875,        27.26159
       5.695832,        27.30077,        5.704168,        27.34268,          5.7125,        27.38416,        5.720832,        27.42959
       5.729166,        27.47137,          5.7375,        27.51831,        5.745834,         27.5554,        5.754166,        27.59468
         5.7625,        27.63386,        5.770834,        27.67228,        5.779168,        27.71924,          5.7875,        27.76124
       5.795832,        27.80276,        5.804168,        27.84272,          5.8125,        27.88609,        5.820832,        27.91758
       5.829168,        27.96368,          5.8375,        28.00846,        5.845832,        28.04948,        5.854166,        28.09364
         5.8625,        28.12775,        5.870834,        28.17135,        5.879166,        28.21622,          5.8875,        28.25922
       5.895834,        28.29234,        5.904168,        28.34288,          5.9125,        28.38072,        5.920832,        28.42252
       5.929168,        28.46154,          5.9375,        28.50354,        5.945832,        28.55183,        5.954168,        28.58462
         5.9625,        28.61987,        5.970832,        28.67236,        5.979166,        28.70647,          5.9875,         28.7476
       5.995834,        28.79822,        6.004166,        28.83557,          6.0125,        28.87435,        6.020834,        28.91796
       6.029168,         28.9635,          6.0375,        29.00293,        6.045832,        29.04476,        6.054168,        29.08528
         6.0625,        29.12748,        6.070832,        29.16834,        6.079168,        29.21137,          6.0875,        29.25252
       6.095832,        29.29442,        6.104166,        29.33509,          6.1125,        29.37305,        6.120834,         29.4245
       6.129166,        29.46324,          6.1375,        29.50873,        6.145834,        29.55259,        6.154168,        29.58872
         6.1625,        29.62559,        6.170832,        29.66822,        6.179168,        29.71963,          6.1875,        29.75216
       6.195832,        29.79522,        6.204168,          29.829,          6.2125,        29.87652,        6.220832,        29.91598
       6.229166,        29.95762,          6.2375,        29.99868,        6.245834,        30.04397,        6.254166,         30.0908
         6.2625,        30.12676,        6.270834,        30.17381,        6.279168,        30.21301,          6.2875,         30.2488
       6.295832,        30.29454,        6.304168,        30.33208,          6.3125,        30.37936,        6.320832,         30.4108
       6.329168,        30.46232,          6.3375,        30.50311,        6.345832,        30.54441,        6.354166,        30.58226
         6.3625,        30.62704,        6.370834,        30.66716,        6.379166,        30.71383,          6.3875,        30.75114
       6.395834,        30.79213,        6.404166,        30.83378,          6.4125,        30.87649,        6.420832,        30.92324
       6.429168,           30.96,          6.4375,        30.98853,        6.445832,        31.04316,        6.454168,        31.07983
         6.4625,        31.12442,        6.470834,         31.1651,        6.479166,        31.20935,          6.4875,        31.25071
       6.495834,        31.29111,        6.504166,        31.32863,          6.5125,        31.36989,        6.520834,        31.41329
       6.529166,        31.45101,          6.5375,        31.50163,        6.545832,        31.53812,        6.554168,        31.57878
         6.5625,        31.62837,        6.570832,        31.66559,        6.579168,        31.70632,          6.5875,        31.75005
       6.595834,        31.78537,        6.604166,        31.82781,          6.6125,        31.87228,        6.620834,        31.91074
       6.629166,        31.95686,          6.6375,          31.995,        6.645834,        32.03777,        6.654166,        32.07572
         6.6625,        32.12084,        6.670832,        32.15732,        6.679168,        32.20385,          6.6875,        32.24872
       6.695832,        32.28813,        6.704168,        32.32622,          6.7125,        32.37223,        6.720834,        32.41156
       6.729166,        32.45322,          6.7375,        32.50622,        6.745834,        32.53722,        6.754166,        32.57982
         6.7625,        32.61512,        6.770834,        32.66082,        6.779166,        32.70502,          6.7875,        32.74507
       6.795832,        32.79168,        6.804168,        32.82424,          6.8125,        32.86828,        6.820832,        32.91223
       6.829168,         32.9512,          6.8375,         32.9854,        6.845834,        33.03732,        6.854166,        33.07575
         6.8625,        33.11836,        6.870834,        33.16968,        6.879166,        33.20218,          6.8875,        33.24372
       6.895834,        33.28536,        6.904166,        33.32066,          6.9125,         33.3696,        6.920832,         33.4039
       6.929168,         33.4526,          6.9375,        33.48862,        6.945832,         33.5361,        6.954168,        33.58062
         6.9625,        33.61096,        6.970834,        33.66138,        6.979166,        33.70416,          6.9875,        33.73595
       6.995834,        33.78286,        7.004166,        33.82254,          7.0125,        33.86829,        7.020834,         33.9093
       7.029166,        33.95012,          7.0375,         33.9912,        7.045832,         34.0374,        7.054168,        34.07652
         7.0625,        34.11911,        7.070832,        34.16308,        7.079168,        34.19994,          7.0875,        34.23772
       7.095834,        34.28959,        7.104166,        34.32911,          7.1125,        34.37445,        7.120834,        34.41187
       7.129166,        34.44966,          7.1375,        34.49226,        7.145834,        34.53332,        7.154166,        34.57486
         7.1625,         34.6179,        7.170832,         34.6628,        7.179168,        34.70491,          7.1875,        34.74639
       7.195832,          34.787,        7.204168,        34.82367,          7.2125,        34.86612,        7.220834,        34.90656
       7.229166,        34.94766,          7.2375,        34.98928,        7.245834,        35.03116,        7.254166,        35.07324
         7.2625,        35.11356,        7.270834,        35.15426,        7.279166,        35.19416,          7.2875,        35.23755
       7.295832,        35.27928,        7.304168,        35.32518,          7.3125,        35.36339,        7.320832,          35.406
       7.329168,        35.44625,          7.3375,        35.48528,        7.345834,        35.52354,        7.354166,        35.57028
         7.3625,        35.61162,        7.370834,         35.6567,        7.379166,        35.69568,          7.3875,        35.73825
       7.395834,         35.7742,        7.404166,        35.82267,          7.4125,        35.86563,        7.420832,        35.90544
       7.429168,        35.94405,          7.4375,        35.98302,        7.445832,        36.02624,        7.454168,        36.06261
         7.4625,        36.10696,        7.470834,         36.1505,        7.479166,         36.1914,          7.4875,        36.23673
       7.495834,        36.27788,        7.504166,         36.3139,          7.5125,        36.36196,        7.520834,        36.39705
       7.529166,        36.44816,          7.5375,        36.48181,        7.545832,        36.53138,        7.554168,        36.57286
         7.5625,        36.61109,        7.570832,        36.65575,        7.579168,        36.69697,          7.5875,         36.7355
       7.595834,        36.78604,        7.604166,        36.81548,          7.6125,          36.864,        7.620834,        36.90294
       7.629166,        36.94904,          7.6375,        36.98053,        7.645834,        37.03329,        7.654166,        37.07628
         7.6625,        37.11166,        7.670832,        37.15069,        7.679168,        37.19909,          7.6875,        37.23665
       7.695832,        37.27848,        7.704168,        37.32049,          7.7125,        37.36519,        7.720834,        37.41174
       7.729166,        37.44956,          7.7375,        37.48697,        7.745834,        37.52515,        7.754166,        37.56723
         7.7625,        37.60874,        7.770834,        37.65644,        7.779166,        37.69666,          7.7875,        37.74299
       7.795832,        37.78588,        7.804168,        37.82198,          7.8125,         37.8584,        7.820832,        37.90494
       7.829168,         37.9366,          7.8375,        37.98913,        7.845834,        38.02876,        7.854166,        38.07028
         7.8625,        38.11244,        7.870834,         38.1556,        7.879166,        38.18828,          7.8875,          38.233
       7.895834,        38.27305,        7.904166,        38.31758,          7.9125,        38.36404,        7.920832,        38.40294
       7.929168,        38.44253,          7.9375,        38.48522,        7.945832,        38.51793,        7.954168,         38.5624
         7.9625,        38.60796,        7.970834,        38.65013,        7.979166,         38.6899,          7.9875,        38.73916
       7.995834,         38.7758,        8.004166,         38.8166,          8.0125,        38.85186,        8.020832,        38.89668
       8.029166,        38.93486,          8.0375,        38.97274,        8.045834,         39.0167,        8.054168,        39.06452
         8.0625,        39.10555,        8.070832,        39.15088,        8.079166,        39.18533,          8.0875,         39.2308
       8.095834,        39.26249,        8.104168,        39.30976,          8.1125,        39.35646,        8.120834,        39.40214
       8.129166,        39.44018,          8.1375,         39.4821,        8.145832,        39.52126,        8.154166,        39.56582
         8.1625,        39.60456,        8.170834,         39.6452,        8.179168,        39.69388,          8.1875,        39.72691
       8.195832,        39.77304,        8.204166,         39.8118,          8.2125,        39.85236,        8.220834,        39.89746
       8.229168,         39.9366,          8.2375,         39.9782,        8.245834,        40.01984,        8.254166,         40.0616
         8.2625,        40.10122,        8.270832,        40.13715,        8.279166,        40.18805,          8.2875,        40.22661
       8.295834,        40.27289,        8.304168,        40.31209,          8.3125,        40.35636,        8.320832,        40.40031
       8.329166,        40.43261,          8.3375,        40.48468,        8.345834,        40.52669,        8.354168,        40.56482
         8.3625,         40.6077,        8.370834,        40.64554,        8.379166,         40.6824,          8.3875,        40.72807
       8.395832,        40.76834,        8.404166,        40.81545,          8.4125,        40.85706,        8.420834,         40.8945
       8.429168,        40.93448,          8.4375,        40.97586,        8.445832,        41.02363,        8.454166,        41.06262
         8.4625,        41.09664,        8.470834,        41.14165,        8.479168,        41.18706,          8.4875,        41.22951
       8.495834,        41.26636,        8.504166,        41.31552,          8.5125,        41.35405,        8.520832,        41.40111
       8.529166,        41.44018,          8.5375,        41.47522,        8.545834,        41.52528,        8.554168,        41.55967
         8.5625,        41.59772,        8.570832,        41.64605,        8.579166,        41.68865,          8.5875,        41.72586
       8.595834,        41.76769,        8.604168,         41.8124,          8.6125,        41.85588,        8.620834,        41.89236
       8.629166,        41.93486,          8.6375,        41.97793,        8.645832,        42.01866,        8.654166,        42.06028
         8.6625,        42.09824,        8.670834,         42.1438,        8.679168,        42.18438,          8.6875,        42.22063
       8.695832,        42.26416,        8.704166,        42.30204,          8.7125,        42.34594,        8.720834,        42.38915
       8.729168,        42.42944,          8.7375,        42.47266,        8.745834,        42.51596,        8.754166,        42.55516
         8.7625,        42.59144,        8.770832,        42.63974,        8.779166,        42.67936,          8.7875,        42.72316
       8.795834,        42.76716,        8.804168,        42.80696,          8.8125,        42.84687,        8.820832,        42.88821
       8.829166,        42.92944,          8.8375,        42.97728,        8.845834,         43.0175,        8.854168,        43.06287
         8.8625,         43.0974,        8.870834,        43.14213,        8.879166,        43.17762,          8.8875,        43.22442
       8.895832,        43.26938,        8.904166,        43.30167,          8.9125,        43.34804,        8.920834,        43.39282
       8.929168,        43.43262,          8.9375,        43.48291,        8.945832,        43.51859,        8.954166,        43.55994
         8.9625,         43.6007,        8.970834,        43.64256,        8.979168,        43.68377,          8.9875,        43.72136
       8.995834,        43.76838,        9.004166,        43.80787,          9.0125,         43.8439,        9.020832,        43.88727
       9.029166,        43.92781,          9.0375,        43.97692,        9.045834,        44.01996,        9.054168,          44.058
         9.0625,        44.09702,        9.070832,        44.14597,        9.079166,        44.18178,          9.0875,        44.22852
       9.095834,          44.273,        9.104168,        44.30756,          9.1125,        44.35082,        9.120834,        44.39047
       9.129166,         44.4248,          9.1375,        44.47512,        9.145832,        44.51977,        9.154166,        44.55572
         9.1625,        44.59764,        9.170834,        44.64298,        9.179168,        44.68632,          9.1875,        44.72474
       9.195832,        44.76366,        9.204166,         44.8075,          9.2125,        44.84697,        9.220834,        44.89144
       9.229168,        44.93585,          9.2375,         44.9731,        9.245834,        45.01194,        9.254166,        45.05932
         9.2625,        45.09771,        9.270832,        45.14152,        9.279166,        45.18015,          9.2875,        45.21748
       9.295834,        45.26261,        9.304168,        45.30709,          9.3125,        45.34852,        9.320832,         45.3896
       9.329166,        45.43336,          9.3375,        45.47848,        9.345834,         45.5138,        9.354168,        45.55246
         9.3625,        45.59746,        9.370834,        45.63022,        9.379166,        45.68506,          9.3875,        45.72187
       9.395832,         45.7666,        9.404166,        45.80504,          9.4125,        45.84896,        9.420834,        45.89394
       9.429168,        45.92477,          9.4375,         45.9746,        9.445832,        46.01742,        9.454166,        46.05546
         9.4625,        46.09698,        9.470834,        46.14231,        9.479168,        46.17791,          9.4875,         46.2244
       9.495834,        46.26213,        9.504166,        46.30646,          9.5125,        46.34742,        9.520832,         46.3916
       9.529166,        46.43292,          9.5375,        46.46718,        9.545834,         46.5141,        9.554168,        46.55484
         9.5625,        46.59602,        9.570832,        46.63938,        9.579166,        46.66344,          9.5875,        46.72488
       9.595834,        46.76619,        9.604168,         46.8043,          9.6125,        46.85161,        9.620834,        46.88913
       9.629166,         46.9268,          9.6375,        46.97416,        9.645832,        47.01196,        9.654166,        47.05634
         9.6625,        47.09711,        9.670834,        47.13922,        9.679168,         47.1818,          9.6875,        47.22818
       9.695832,         47.2625,        9.704166,        47.31034,          9.7125,        47.34761,        9.720834,        47.39218
       9.729168,         47.4294,          9.7375,        47.47058,        9.745834,        47.50309,        9.754166,        47.55459
         9.7625,        47.60041,        9.770832,          47.646,        9.779166,        47.68175,          9.7875,        47.71962
       9.795834,         47.7651,        9.804168,        47.80584,          9.8125,        47.84739,        9.820832,        47.88896
       9.829166,        47.92944,          9.8375,        47.97116,        9.845834,        48.01248,        9.854168,        48.05109
         9.8625,        48.09146,        9.870834,          48.136,        9.879166,        48.17887,          9.8875,         48.2246
       9.895832,        48.25988,        9.904166,        48.30616,          9.9125,         48.3454,        9.920834,        48.38884
       9.929168,        48.42683,          9.9375,        48.46626,        9.945832,        48.51466,        9.954166,        48.55703
         9.9625,        48.59448,        9.970834,        48.62598,        9.979168,        48.67765,          9.9875,        48.72568
       9.995834,        48.75958,        10.00417,        48.80532,         10.0125,        48.84862,        10.02083,        48.88916
       10.02917,        48.92939,         10.0375,        48.96607,        10.04583,        49.01607,        10.05417,         49.0578
        10.0625,        49.10449,        10.07083,        49.13663,        10.07917,        49.17934,         10.0875,        49.22324
       10.09583,         49.2677,        10.10417,         49.3084,         10.1125,        49.34762,        10.12083,        49.37891
       10.12917,        49.43102,         10.1375,         49.4729,        10.14583,        49.51464,        10.15417,        49.55386
        10.1625,        49.59967,        10.17083,         49.6399,        10.17917,        49.67836,         10.1875,        49.72648
       10.19583,         49.7649,        10.20417,        49.80893,         10.2125,        49.84724,        10.22083,        49.88376
       10.22917,        49.92989,         10.2375,        49.97685,        10.24583,        50.01464,        10.25417,        50.05188
        10.2625,        50.10053,        10.27083,        50.14514,        10.27917,        50.17862,         10.2875,        50.22729
       10.29583,         50.2687,        10.30417,         50.3065,         10.3125,        50.35067,        10.32083,        50.39201
       10.32917,        50.43209,         10.3375,        50.47056,        10.34583,         50.5132,        10.35417,        50.55967
        10.3625,        50.60026,        10.37083,         50.6447,        10.37917,        50.68314,         10.3875,        50.72363
       10.39583,        50.76056,        10.40417,        50.81304,         10.4125,         50.8501,        10.42083,        50.88958
       10.42917,        50.94072,         10.4375,        50.97259,        10.44583,        51.01694,        10.45417,        51.05352
        10.4625,        51.09864,        10.47083,        51.13752,        10.47917,        51.17437,         10.4875,        51.22546
       10.49584,         51.2686,        10.50416,        51.30602,         10.5125,        51.35346,        10.52083,        51.38922
       10.52916,        51.43535,         10.5375,        51.46786,        10.54584,        51.51064,        10.55417,        51.55903
        10.5625,        51.59617,        10.57083,        51.64391,        10.57916,        51.68456,         10.5875,        51.72002
       10.59584,        51.76531,        10.60417,        51.81028,         10.6125,        51.85232,        10.62084,        51.89296
       10.62916,        51.93076,         10.6375,        51.97902,        10.64583,        52.02028,        10.65416,        52.06111
        10.6625,        52.09888,        10.67084,        52.14853,        10.67917,         52.1879,         10.6875,        52.21956
       10.69583,        52.26906,        10.70416,        52.31018,         10.7125,        52.36036,        10.72084,        52.39498
       10.72917,        52.43544,         10.7375,        52.47586,        10.74584,        52.51576,        10.75416,        52.55622
        10.7625,        52.60684,        10.77083,        52.65043,        10.77916,        52.68336,         10.7875,        52.72084
       10.79584,         52.7736,        10.80417,        52.80996,         10.8125,         52.8525,        10.82083,         52.8996
       10.82916,        52.93313,         10.8375,        52.97715,        10.84584,         53.0199,        10.85417,        53.06331
        10.8625,        53.10066,        10.87084,        53.14634,        10.87916,        53.19072,         10.8875,        53.22741
       10.89583,        53.27708,        10.90416,        53.30787,         10.9125,        53.36082,        10.92084,        53.39575
       10.92917,        53.43919,         10.9375,        53.48097,        10.94583,        53.52691,        10.95416,        53.55911
        10.9625,        53.60796,        10.97084,        53.64822,        10.97917,        53.68953,         10.9875,        53.73623
       10.99584,        53.76908,        11.00416,        53.81044,         11.0125,        53.85663,        11.02083,        53.89422
       11.02916,        53.93646,         11.0375,        53.97088,        11.04584,         54.0204,        11.05417,        54.06045
        11.0625,        54.10264,        11.07083,        54.14133,        11.07916,        54.19072,         11.0875,        54.22438
       11.09584,        54.27234,        11.10417,        54.31578,         11.1125,        54.35356,        11.12084,        54.39184
       11.12916,        54.43981,         11.1375,        54.47418,        11.14583,        54.51668,        11.15416,        54.55818
        11.1625,        54.60226,        11.17084,        54.64178,        11.17917,        54.68572,         11.1875,        54.72605
       11.19583,        54.76879,        11.20416,        54.81006,         11.2125,        54.84728,        11.22084,        54.89575
       11.22917,        54.93219,         11.2375,        54.97226,        11.24584,         55.0153,        11.25416,        55.05932
        11.2625,         55.0999,        11.27083,        55.14268,        11.27916,        55.17832,         11.2875,         55.2182
       11.29584,        55.26707,        11.30417,        55.30239,         11.3125,        55.34976,        11.32083,         55.3913
       11.32916,        55.43658,         11.3375,        55.47932,        11.34584,        55.52158,        11.35417,        55.56199
        11.3625,        55.60382,        11.37084,        55.63574,        11.37916,        55.67374,         11.3875,        55.72288
       11.39583,         55.7749,        11.40416,        55.81285,         11.4125,        55.84488,        11.42084,        55.89476
       11.42917,          55.933,         11.4375,        55.97835,        11.44583,        56.01791,        11.45416,          56.066
        11.4625,          56.092,        11.47084,        56.14164,        11.47917,         56.1859,         11.4875,        56.22388
       11.49584,        56.26768,        11.50416,        56.30484,         11.5125,        56.35178,        11.52083,        56.39244
       11.52916,        56.43142,         11.5375,        56.47051,        11.54584,         56.5131,        11.55417,         56.5501
        11.5625,        56.59377,        11.57083,        56.63918,        11.57916,         56.6712,         11.5875,        56.72012
       11.59584,        56.76574,        11.60417,        56.80814,         11.6125,        56.84566,        11.62084,         56.8864
       11.62916,        56.93039,         11.6375,        56.97094,        11.64583,        57.01187,        11.65416,        57.05768
        11.6625,        57.09295,        11.67084,        57.13512,        11.67917,        57.17693,         11.6875,        57.22084
       11.69583,        57.26635,        11.70416,        57.29699,         11.7125,         57.3475,        11.72084,        57.38688
       11.72917,        57.42658,         11.7375,        57.46879,        11.74584,          57.505,        11.75416,         57.5554
        11.7625,         57.5987,        11.77083,        57.64071,        11.77916,        57.67546,         11.7875,        57.71276
       11.79584,        57.76074,        11.80417,        57.79501,         11.8125,        57.84508,        11.82083,        57.87877
       11.82916,        57.92286,         11.8375,         57.9619,        11.84584,         58.0088,        11.85417,        58.04738
        11.8625,        58.08907,        11.87084,        58.13664,        11.87916,        58.17728,         11.8875,         58.2228
       11.89583,        58.25739,        11.90416,         58.3004,         11.9125,        58.34348,        11.92084,        58.38434
       11.92917,         58.4251,         11.9375,         58.4688,        11.94583,        58.50626,        11.95416,        58.55308
        11.9625,        58.58438,        11.97084,         58.6353,        11.97917,        58.67794,         11.9875,        58.71259
       11.99584,        58.76118,        12.00416,        58.79812,         12.0125,        58.84201,        12.02083,        58.87995
       12.02916,        58.92309,         12.0375,        58.96748,        12.04584,        59.00799,        12.05417,        59.04664
        12.0625,        59.08924,        12.07083,        59.13212,        12.07916,        59.17903,         12.0875,        59.21199
       12.09584,        59.25078,        12.10417,        59.30064,         12.1125,        59.34042,        12.12084,        59.37921
       12.12916,        59.42422,         12.1375,        59.46619,        12.14583,        59.50795,        12.15416,        59.54641
        12.1625,        59.58989,        12.17084,        59.62862,        12.17917,         59.6666,         12.1875,        59.71386
       12.19583,        59.75093,        12.20416,         59.7985,         12.2125,         59.8453,        12.22084,        59.87874
       12.22917,        59.91846,         12.2375,         59.9634,        12.24584,        60.00603,        12.25416,        60.04646
        12.2625,        60.08783,        12.27083,        60.13171,        12.27916,        60.16995,         12.2875,        60.20686
       12.29584,        60.25493,        12.30417,        60.29213,         12.3125,        60.33746,        12.32083,        60.37851
       12.32916,        60.41819,         12.3375,        60.46882,        12.34584,        60.50808,        12.35417,        60.54097
        12.3625,         60.5866,        12.37084,        60.62399,        12.37916,        60.66386,         12.3875,        60.70307
       12.39583,        60.75434,        12.40416,        60.79305,         12.4125,         60.8337,        12.42084,        60.87616
       12.42917,        60.91434,         12.4375,         60.9603,        12.44583,          60.998,        12.45416,        61.03394
        12.4625,        61.08223,        12.47084,        61.12734,        12.47917,        61.16536,         12.4875,        61.20396
       12.49584,        61.25326,        12.50416,        61.28715,         12.5125,         61.3369,        12.52083,        61.37783
       12.52916,        61.42016,         12.5375,        61.45724,        12.54584,         61.4981,        12.55417,        61.54385
        12.5625,         61.5926,        12.57083,        61.63452,        12.57916,         61.6731,         12.5875,         61.7122
       12.59584,        61.75543,        12.60417,         61.7892,         12.6125,        61.83293,        12.62084,         61.8803
       12.62916,          61.918,         12.6375,        61.95955,        12.64583,        62.00432,        12.65416,        62.04488
        12.6625,        62.08012,        12.67084,        62.12581,        12.67917,        62.16876,         12.6875,         62.2102
       12.69583,          62.255,        12.70416,        62.29488,         12.7125,        62.33842,        12.72084,        62.37844
       12.72917,         62.4188,         12.7375,        62.45862,        12.74584,        62.50234,        12.75416,        62.54172
        12.7625,        62.58387,        12.77083,         62.6304,        12.77916,        62.66669,         12.7875,        62.71155
       12.79584,         62.7481,        12.80417,        62.79324,         12.8125,        62.83542,        12.82083,        62.87996
       12.82916,        62.91365,         12.8375,        62.95748,        12.84584,        63.00372,        12.85417,        63.04945
        12.8625,        63.08014,        12.87083,          63.126,        12.87917,        63.16696,         12.8875,         63.2094
       12.89583,        63.24593,        12.90416,        63.29145,         12.9125,         63.3273,        12.92084,        63.38284
       12.92917,        63.42388,         12.9375,         63.4581,        12.94583,        63.50282,        12.95416,         63.5433
        12.9625,        63.58845,        12.97084,        63.62507,        12.97917,        63.66924,         12.9875,        63.70758
       12.99583,        63.75162,        13.00417,        63.79596,         13.0125,        63.84334,        13.02083,        63.88308
       13.02916,        63.91592,         13.0375,        63.95787,        13.04584,        64.00055,        13.05417,         64.0378
        13.0625,        64.08435,        13.07083,        64.12865,        13.07916,        64.16765,         13.0875,        64.21543
       13.09584,         64.2491,        13.10417,        64.29004,         13.1125,        64.34021,        13.12083,        64.36894
       13.12917,        64.41855,         13.1375,        64.45784,        13.14583,        64.50087,        13.15416,        64.54493
        13.1625,        64.57949,        13.17084,        64.62078,        13.17917,         64.6673,         13.1875,        64.69984
       13.19583,        64.74732,        13.20416,        64.79009,         13.2125,        64.83344,        13.22084,        64.87511
       13.22917,        64.91768,         13.2375,         64.9526,        13.24583,        64.99765,        13.25417,         65.0423
        13.2625,        65.08312,        13.27083,        65.12608,        13.27916,        65.16829,         13.2875,        65.19484
       13.29584,        65.25156,        13.30417,        65.28772,         13.3125,        65.33457,        13.32083,        65.37877
       13.32916,        65.41724,         13.3375,         65.4605,        13.34584,        65.50586,        13.35417,        65.53734
        13.3625,        65.57976,        13.37083,         65.6302,        13.37917,        65.66147,         13.3875,        65.70805
       13.39583,        65.74809,        13.40416,        65.79644,         13.4125,        65.83699,        13.42084,        65.87481
       13.42917,        65.91505,         13.4375,        65.95958,        13.44583,         65.9948,        13.45416,         66.0421
        13.4625,        66.08134,        13.47084,        66.12011,        13.47917,         66.1699,         13.4875,        66.21031
       13.49583,        66.24825,        13.50417,        66.29051,         13.5125,        66.33406,        13.52083,         66.3729
       13.52916,        66.41464,         13.5375,        66.45692,        13.54584,        66.49288,        13.55417,        66.54072
        13.5625,        66.57897,        13.57083,        66.61976,        13.57916,        66.66499,         13.5875,         66.7037
       13.59584,        66.74549,        13.60417,        66.78413,         13.6125,         66.8343,        13.62083,        66.86689
       13.62917,        66.91388,         13.6375,        66.95894,        13.64583,        67.00058,        13.65416,        67.04491
        13.6625,        67.08076,        13.67084,        67.12076,        13.67917,        67.16753,         13.6875,         67.2075
       13.69583,        67.24603,        13.70416,        67.29062,         13.7125,        67.32611,        13.72084,        67.37292
       13.72917,        67.41149,         13.7375,        67.45395,        13.74583,        67.49558,        13.75417,        67.53906
        13.7625,        67.57516,        13.77083,        67.62496,        13.77916,         67.6607,         13.7875,        67.70572
       13.79584,        67.74884,        13.80417,        67.78731,         13.8125,         67.8267,        13.82083,        67.87379
       13.82916,        67.91186,         13.8375,        67.95525,        13.84584,        67.99304,        13.85417,        68.03599
        13.8625,        68.07671,        13.87083,        68.11674,        13.87917,        68.16063,         13.8875,          68.209
       13.89583,        68.25161,        13.90416,         68.2918,         13.9125,        68.33072,        13.92084,        68.37314
       13.92917,        68.41148,         13.9375,        68.45015,        13.94583,        68.49478,        13.95416,        68.53519
        13.9625,        68.57716,        13.97084,        68.61578,        13.97917,         68.6636,         13.9875,         68.7035
       13.99583,        68.74595,        14.00417,        68.79058,         14.0125,        68.83078,        14.02083,         68.8718
       14.02916,        68.90856,         14.0375,        68.95386,        14.04584,        68.99692,        14.05417,        69.04248
        14.0625,        69.08022,        14.07083,        69.11938,        14.07916,        69.16798,         14.0875,         69.2091
       14.09584,        69.24618,        14.10417,        69.29111,         14.1125,        69.32807,        14.12083,        69.37255
       14.12917,        69.41838,         14.1375,        69.45678,        14.14583,        69.50171,        14.15416,        69.53407
        14.1625,        69.57825,        14.17084,        69.61944,        14.17917,        69.66184,         14.1875,         69.7007
       14.19583,        69.74147,        14.20416,        69.78748,         14.2125,        69.82806,        14.22084,         69.8699
       14.22917,        69.90898,         14.2375,        69.95009,        14.24583,        69.98662,        14.25417,        70.03184
        14.2625,        70.07741,        14.27083,        70.11801,        14.27916,        70.16087,         14.2875,        70.20178
       14.29584,        70.23819,        14.30417,           70.28,         14.3125,        70.33003,        14.32083,        70.36757
       14.32916,        70.41287,         14.3375,        70.44978,        14.34584,        70.49574,        14.35417,        70.53579
        14.3625,        70.58086,        14.37083,        70.61765,        14.37917,        70.66088,         14.3875,         70.6987
       14.39583,        70.74446,        14.40416,        70.78199,         14.4125,         70.8256,        14.42084,        70.87112
       14.42917,        70.90716,         14.4375,        70.95389,        14.44583,             71.,        14.45416,         71.0364
        14.4625,          71.074,        14.47084,         71.1176,        14.47917,        71.16374,         14.4875,        71.20186
       14.49583,        71.24121,        14.50417,        71.28638,         14.5125,        71.33497,        14.52083,        71.37038
       14.52916,        71.41165,         14.5375,         71.4505,        14.54584,         71.4918,        14.55417,        71.52856
        14.5625,        71.57954,        14.57083,        71.61722,        14.57916,        71.65619,         14.5875,        71.70176
       14.59584,         71.7376,        14.60417,        71.78556,         14.6125,        71.82065,        14.62083,        71.86851
       14.62917,        71.91602,         14.6375,        71.94964,        14.64583,        71.99238,        14.65416,        72.03593
        14.6625,          72.075,        14.67084,        72.12262,        14.67917,        72.16026,         14.6875,        72.19936
       14.69583,        72.24438,        14.70416,        72.28796,         14.7125,        72.31921,        14.72084,        72.36642
       14.72917,        72.41064,         14.7375,        72.45162,        14.74583,         72.4975,        14.75417,          72.535
        14.7625,        72.58039,        14.77083,         72.6173,        14.77916,        72.65608,         14.7875,        72.69863
       14.79584,        72.74374,        14.80417,        72.77797,         14.8125,        72.82842,        14.82083,        72.86832
       14.82916,        72.90822,         14.8375,         72.9496,        14.84584,        72.98819,        14.85417,        73.03449
        14.8625,        73.07214,        14.87083,        73.12047,        14.87917,        73.16244,         14.8875,        73.19608
       14.89583,        73.24526,        14.90416,        73.28358,         14.9125,        73.32939,        14.92084,         73.3693
       14.92917,        73.40974,         14.9375,         73.4502,        14.94583,         73.4897,        14.95416,        73.53768
        14.9625,        73.57476,        14.97084,        73.60772,        14.97917,        73.66082,         14.9875,        73.70154
       14.99583,        73.74234,        15.00417,        73.77979,         15.0125,        73.82925,        15.02083,        73.87008
       15.02916,        73.90713,         15.0375,        73.94908,        15.04584,         73.9925,        15.05417,        74.03878
        15.0625,        74.07276,        15.07083,        74.11694,        15.07916,        74.16494,         15.0875,        74.19961
       15.09584,        74.23966,        15.10417,         74.2853,         15.1125,         74.3245,        15.12083,        74.36842
       15.12917,        74.41036,         15.1375,        74.44916,        15.14583,        74.49281,        15.15416,        74.53743
        15.1625,        74.57394,        15.17084,        74.61966,        15.17917,        74.66668,         15.1875,          74.701
       15.19583,        74.74131,        15.20416,        74.78144,         15.2125,        74.82688,        15.22084,        74.86958
       15.22917,        74.91295,         15.2375,        74.95596,        15.24583,        74.99462,        15.25417,        75.03066
        15.2625,        75.07411,        15.27083,         75.1216,        15.27916,        75.16213,         15.2875,         75.2083
       15.29584,        75.23743,        15.30417,        75.28381,         15.3125,        75.32089,        15.32083,        75.37153
       15.32916,        75.40569,         15.3375,        75.45599,        15.34584,        75.49524,        15.35417,        75.53266
        15.3625,        75.57799,        15.37083,        75.61688,        15.37917,        75.65585,         15.3875,        75.70184
       15.39583,         75.7405,        15.40416,         75.7875,         15.4125,        75.82462,        15.42084,         75.8685
       15.42917,         75.9132,         15.4375,         75.9521,        15.44583,         75.9902,        15.45416,        76.03222
        15.4625,         76.0703,        15.47084,        76.11296,        15.47917,         76.1608,         15.4875,        76.20184
       15.49583,        76.24178,        15.50417,        76.27562,         15.5125,        76.32618,        15.52083,        76.36679
       15.52916,        76.41016,         15.5375,        76.44356,        15.54584,        76.49342,        15.55417,         76.5332
        15.5625,        76.56662,        15.57083,        76.61628,        15.57916,        76.65649,         15.5875,        76.70062
       15.59584,        76.74075,        15.60417,          76.782,         15.6125,         76.8244,        15.62083,        76.86293
       15.62917,        76.90825,         15.6375,        76.94972,        15.64583,         76.9959,        15.65416,        77.02766
        15.6625,        77.07222,        15.67084,        77.11158,        15.67917,        77.15547,         15.6875,        77.19714
       15.69583,        77.23876,        15.70416,        77.28296,         15.7125,        77.31832,        15.72084,        77.35844
       15.72917,        77.40792,         15.7375,        77.44976,        15.74583,        77.49331,        15.75417,        77.53431
        15.7625,        77.57338,        15.77083,        77.61592,        15.77916,        77.65486,         15.7875,        77.70316
       15.79584,        77.73866,        15.80417,        77.77416,         15.8125,         77.8232,        15.82083,        77.85957
       15.82916,         77.9039,         15.8375,        77.94632,        15.84584,        77.98574,        15.85417,        78.03613
        15.8625,        78.06762,        15.87083,        78.11653,        15.87917,         78.1586,         15.8875,        78.20074
       15.89583,         78.2418,        15.90416,        78.27919,         15.9125,        78.32747,        15.92084,        78.36662
       15.92917,        78.40761,         15.9375,        78.45147,        15.94583,        78.49201,        15.95416,        78.53505
        15.9625,        78.57181,        15.97084,        78.61082,        15.97917,        78.65382,         15.9875,        78.70007
       15.99583,        78.73661,        16.00417,        78.77759,         16.0125,        78.82463,        16.02084,        78.86328
       16.02917,        78.90444,         16.0375,        78.94756,        16.04584,        78.99394,        16.05417,        79.03712
        16.0625,        79.07411,        16.07083,        79.11363,        16.07916,        79.15122,         16.0875,        79.19788
       16.09583,        79.24338,        16.10416,        79.27524,         16.1125,        79.32353,        16.12083,        79.35902
       16.12917,        79.40755,         16.1375,         79.4426,        16.14584,        79.48489,        16.15417,          79.533
        16.1625,        79.57122,        16.17084,         79.6136,        16.17917,        79.65278,         16.1875,           79.69
       16.19583,        79.73722,        16.20416,        79.78179,         16.2125,        79.82069,        16.22083,        79.86528
       16.22916,        79.90705,         16.2375,        79.94675,        16.24583,        79.98587,        16.25417,        80.02828
        16.2625,        80.06905,        16.27084,        80.10888,        16.27917,        80.15562,         16.2875,        80.20054
       16.29584,        80.24238,        16.30417,        80.28032,         16.3125,        80.32255,        16.32083,        80.36284
       16.32916,         80.4105,         16.3375,        80.45258,        16.34583,        80.48801,        16.35416,        80.53324
        16.3625,        80.57774,        16.37083,        80.61632,        16.37917,        80.65866,         16.3875,        80.69097
       16.39584,        80.73876,        16.40417,        80.78411,         16.4125,        80.82631,        16.42084,        80.86632
       16.42917,         80.9018,         16.4375,        80.95154,        16.44583,         80.9852,        16.45416,        81.02964
        16.4625,        81.06772,        16.47083,        81.11355,        16.47916,        81.15046,         16.4875,        81.19075
       16.49583,        81.23315,        16.50417,        81.27874,         16.5125,        81.32068,        16.52084,        81.36078
       16.52917,        81.40299,         16.5375,        81.44447,        16.54584,        81.48738,        16.55417,        81.52753
        16.5625,        81.57288,        16.57083,        81.60926,        16.57916,        81.65306,         16.5875,        81.69476
       16.59583,        81.73731,        16.60416,        81.77813,         16.6125,        81.81554,        16.62083,        81.85875
       16.62917,         81.9024,         16.6375,        81.94484,        16.64584,         81.9856,        16.65417,        82.02894
        16.6625,        82.07141,        16.67084,        82.10944,        16.67917,         82.1503,         16.6875,        82.18999
       16.69583,         82.2371,        16.70416,        82.27661,         16.7125,        82.31835,        16.72083,        82.36234
       16.72916,        82.40137,         16.7375,         82.4464,        16.74583,        82.48329,        16.75417,        82.52116
        16.7625,        82.56988,        16.77084,        82.60656,        16.77917,        82.65042,         16.7875,        82.69536
       16.79584,        82.73843,        16.80417,        82.77335,         16.8125,         82.8118,        16.82083,        82.86032
       16.82916,        82.89986,         16.8375,          82.945,        16.84583,        82.98566,        16.85416,        83.02399
        16.8625,        83.06241,        16.87083,        83.11174,        16.87917,        83.15358,         16.8875,        83.19436
       16.89584,         83.2314,        16.90417,        83.27508,         16.9125,        83.31606,        16.92084,        83.35528
       16.92917,        83.40305,         16.9375,        83.43842,        16.94583,        83.48486,        16.95416,        83.52626
        16.9625,        83.56632,        16.97083,        83.60391,        16.97916,        83.65038,         16.9875,        83.69062
       16.99583,        83.73322,        17.00417,         83.7796,         17.0125,        83.81839,        17.02084,        83.86163
       17.02917,        83.90184,         17.0375,        83.94168,        17.04584,        83.97999,        17.05417,        84.02196
        17.0625,        84.06908,        17.07083,        84.10468,        17.07916,        84.15426,         17.0875,        84.19707
       17.09583,        84.23874,        17.10416,        84.27782,         17.1125,        84.31519,        17.12083,        84.35629
       17.12917,        84.40503,         17.1375,        84.44758,        17.14584,        84.48055,        17.15417,         84.5266
        17.1625,        84.56805,        17.17084,        84.60632,        17.17917,        84.64644,         17.1875,        84.69249
       17.19583,        84.73925,        17.20416,        84.77289,         17.2125,        84.81548,        17.22083,        84.85512
       17.22916,        84.89816,         17.2375,        84.93611,        17.24583,        84.98048,        17.25417,        85.02418
        17.2625,        85.06912,        17.27084,        85.10518,        17.27917,        85.15206,         17.2875,        85.19322
       17.29584,        85.23606,        17.30417,         85.2789,         17.3125,        85.31722,        17.32083,        85.36112
       17.32916,        85.40079,         17.3375,        85.44188,        17.34583,        85.47901,        17.35416,        85.52665
        17.3625,        85.57295,        17.37083,        85.60858,        17.37917,        85.65066,         17.3875,        85.69234
       17.39584,        85.73911,        17.40417,        85.77569,         17.4125,         85.8183,        17.42084,        85.85105
       17.42917,        85.90455,         17.4375,         85.9465,        17.44583,         85.9728,        17.45416,        86.02686
        17.4625,        86.06712,        17.47083,        86.11489,        17.47916,        86.14952,         17.4875,         86.1943
       17.49583,        86.23391,        17.50417,        86.27269,         17.5125,         86.3167,        17.52084,        86.35801
       17.52917,        86.40164,         17.5375,        86.44395,        17.54584,        86.48361,        17.55417,        86.52696
        17.5625,        86.57142,        17.57083,        86.60797,        17.57916,        86.65472,         17.5875,        86.69014
       17.59583,        86.73389,        17.60416,        86.77872,         17.6125,        86.81558,        17.62083,        86.86288
       17.62917,        86.89639,         17.6375,        86.93984,        17.64584,        86.98321,        17.65417,        87.02421
        17.6625,        87.07028,        17.67084,        87.11118,        17.67917,        87.15341,         17.6875,        87.19657
       17.69583,        87.23538,        17.70416,        87.27528,         17.7125,        87.32531,        17.72083,        87.35413
       17.72916,        87.39978,         17.7375,        87.44149,        17.74583,        87.48082,        17.75417,        87.52253
        17.7625,        87.56503,        17.77084,        87.60672,        17.77917,        87.64782,         17.7875,        87.69093
       17.79584,        87.73656,        17.80417,        87.77655,         17.8125,        87.81803,        17.82083,        87.85492
       17.82916,        87.90228,         17.8375,        87.94099,        17.84583,        87.97938,        17.85416,        88.02468
        17.8625,        88.06388,        17.87083,        88.11114,        17.87917,        88.14728,         17.8875,        88.18863
       17.89584,        88.22576,        17.90417,         88.2753,         17.9125,        88.31671,        17.92084,        88.35853
       17.92917,        88.40049,         17.9375,        88.44566,        17.94583,         88.4858,        17.95416,        88.52119
        17.9625,        88.56186,        17.97083,        88.60516,        17.97916,        88.64782,         17.9875,        88.68736
       17.99583,        88.73472,        18.00417,        88.77025,         18.0125,        88.81245,        18.02084,        88.85625
       18.02917,        88.89858,         18.0375,        88.94188,        18.04584,        88.98072,        18.05417,        89.01941
        18.0625,         89.0691,        18.07083,        89.10619,        18.07916,        89.14672,         18.0875,         89.1871
       18.09583,        89.23162,        18.10416,        89.27512,         18.1125,        89.31308,        18.12083,        89.35829
       18.12917,        89.39848,         18.1375,        89.43765,        18.14584,        89.47944,        18.15417,        89.52141
        18.1625,        89.56444,        18.17084,        89.60736,        18.17917,        89.64691,         18.1875,        89.68964
       18.19583,        89.73059,        18.20416,        89.77459,         18.2125,        89.81431,        18.22083,        89.85941
       18.22916,        89.89768,         18.2375,        89.93699,        18.24583,        89.97711,        18.25417,        90.02275
        18.2625,        90.06402,        18.27084,        90.10734,        18.27917,        90.15231,         18.2875,         90.1913
       18.29584,        90.23062,        18.30417,        90.27759,         18.3125,        90.31801,        18.32083,        90.35734
       18.32916,        90.40272,         18.3375,        90.43482,        18.34583,        90.48358,        18.35416,        90.52399
        18.3625,        90.56749,        18.37083,        90.60956,        18.37917,        90.64759,         18.3875,        90.68762
       18.39584,        90.72942,        18.40417,         90.7712,         18.4125,        90.81762,        18.42084,        90.85866
       18.42917,        90.89638,         18.4375,        90.93978,        18.44583,        90.98455,        18.45416,          91.025
        18.4625,        91.06831,        18.47083,         91.1068,        18.47916,        91.14541,         18.4875,        91.19092
       18.49583,        91.23361,        18.50417,        91.27578,         18.5125,        91.31868,        18.52084,        91.35826
       18.52917,        91.39766,         18.5375,        91.44239,        18.54584,        91.48257,        18.55417,        91.52652
        18.5625,        91.56625,        18.57083,        91.60931,        18.57916,        91.64826,         18.5875,        91.69134
       18.59583,          91.733,        18.60416,         91.7752,         18.6125,        91.81528,        18.62083,         91.8585
       18.62917,        91.89751,         18.6375,        91.94381,        18.64584,        91.98505,        18.65417,        92.02691
        18.6625,        92.06531,        18.67084,        92.10424,        18.67917,        92.14566,         18.6875,        92.18884
       18.69583,         92.2378,        18.70416,        92.27664,         18.7125,        92.32026,        18.72083,        92.35906
       18.72916,        92.40132,         18.7375,        92.43931,        18.74583,        92.48344,        18.75417,        92.52641
        18.7625,        92.56547,        18.77084,        92.61093,        18.77917,        92.65155,         18.7875,        92.69445
       18.79584,        92.72859,        18.80417,        92.76949,         18.8125,        92.81401,        18.82083,        92.85189
       18.82916,        92.89868,         18.8375,        92.94616,        18.84583,        92.98388,        18.85416,        93.02869
        18.8625,        93.06266,        18.87083,        93.10585,        18.87917,        93.14681,         18.8875,        93.19268
       18.89584,          93.226,        18.90417,        93.27199,         18.9125,        93.31125,        18.92084,        93.35587
       18.92917,        93.40166,         18.9375,        93.43356,        18.94583,        93.48262,        18.95416,        93.52228
        18.9625,         93.5671,        18.97083,        93.61124,        18.97916,        93.64491,         18.9875,        93.68859
       18.99583,        93.72914,        19.00417,        93.77088,         19.0125,        93.81551,        19.02084,        93.85662
       19.02917,        93.89868,         19.0375,        93.94212,        19.04584,        93.98359,        19.05417,        94.02391
        19.0625,        94.06981,        19.07083,        94.10272,        19.07916,         94.1496,         19.0875,        94.19159
       19.09583,        94.22175,        19.10416,        94.27618,         19.1125,        94.31484,        19.12083,        94.35501
       19.12917,        94.40014,         19.1375,        94.44351,        19.14584,        94.48578,        19.15417,        94.52401
        19.1625,         94.5685,        19.17084,        94.60406,        19.17917,        94.64595,         19.1875,        94.69078
       19.19583,        94.72755,        19.20416,        94.77801,         19.2125,        94.81601,        19.22083,         94.8573
       19.22916,        94.89334,         19.2375,        94.93628,        19.24583,        94.97931,        19.25417,        95.02236
        19.2625,        95.06406,        19.27084,        95.11139,        19.27917,        95.15118,         19.2875,        95.19087
       19.29584,        95.22832,        19.30417,        95.27414,         19.3125,        95.31313,        19.32083,        95.36009
       19.32916,        95.39384,         19.3375,        95.44109,        19.34583,        95.48344,        19.35416,        95.52316
        19.3625,        95.56514,        19.37083,        95.60681,        19.37917,        95.64768,         19.3875,           95.69
       19.39584,        95.72889,        19.40417,        95.76855,         19.4125,         95.8086,        19.42084,        95.85672
       19.42917,        95.90199,         19.4375,        95.93311,        19.44583,        95.97903,        19.45416,        96.02069
        19.4625,        96.06338,        19.47083,        96.10374,        19.47916,        96.14803,         19.4875,        96.18508
       19.49583,        96.23222,        19.50417,        96.26572,         19.5125,        96.31574,        19.52084,        96.35674
       19.52917,        96.39921,         19.5375,        96.43634,        19.54584,        96.47704,        19.55417,        96.51809
        19.5625,        96.56328,        19.57083,        96.60674,        19.57916,        96.65044,         19.5875,        96.67762
       19.59583,        96.72506,        19.60416,        96.76951,         19.6125,        96.80884,        19.62083,        96.85601
       19.62917,        96.89591,         19.6375,        96.93401,        19.64584,        96.97704,        19.65417,        97.02231
        19.6625,        97.06125,        19.67084,        97.10536,        19.67917,        97.15553,         19.6875,        97.19059
       19.69583,        97.22202,        19.70416,        97.27015,         19.7125,        97.31749,        19.72083,         97.3532
       19.72916,        97.39366,         19.7375,        97.43508,        19.74583,        97.47926,        19.75417,        97.52005
        19.7625,        97.56222,        19.77084,        97.60439,        19.77917,        97.64525,         19.7875,        97.68655
       19.79584,        97.72657,        19.80417,        97.76647,         19.8125,        97.81016,        19.82083,        97.85238
       19.82916,        97.89535,         19.8375,        97.93759,        19.84583,        97.97231,        19.85416,        98.02032
        19.8625,        98.06319,        19.87083,         98.1042,        19.87917,        98.14829,         19.8875,        98.18804
       19.89584,        98.22949,        19.90417,        98.26701,         19.9125,        98.31159,        19.92084,        98.35015
       19.92917,        98.39068,         19.9375,         98.4368,        19.94583,        98.47872,        19.95416,        98.51797
        19.9625,        98.56008,        19.97083,        98.60488,        19.97916,         98.6443,         19.9875,        98.68134
       19.99583,        98.73119,        20.00417,        98.77079,         20.0125,        98.81039,        20.02084,        98.85121
       20.02917,        98.89594,         20.0375,         98.9322,        20.04584,        98.97676,        20.05417,        99.01559
        20.0625,         99.0585,        20.07083,        99.10152,        20.07916,        99.14922,         20.0875,        99.18766
       20.09583,        99.22593,        20.10416,        99.27225,         20.1125,        99.30976,        20.12083,        99.35144
       20.12917,        99.40019,         20.1375,        99.44009,        20.14584,        99.47901,        20.15417,        99.52092
        20.1625,         99.5563,        20.17084,         99.6007,        20.17917,        99.64572,         20.1875,        99.68456
       20.19583,        99.73219,        20.20416,        99.77192,         20.2125,        99.80645,        20.22083,        99.85347
       20.22916,        99.89637,         20.2375,        99.94275,        20.24583,        99.97614,        20.25417,        100.0194
        20.2625,        100.0634,        20.27084,        100.1019,        20.27917,        100.1532,         20.2875,        100.1908
       20.29584,        100.2283,        20.30417,        100.2663,         20.3125,        100.3174,        20.32083,         100.343
       20.32916,        100.3921,         20.3375,        100.4365,        20.34583,        100.4772,        20.35416,        100.5172
        20.3625,        100.5637,        20.37083,        100.6058,        20.37917,         100.648,         20.3875,        100.6837
       20.39584,        100.7297,        20.40417,        100.7748,         20.4125,         100.817,        20.42084,         100.851
       20.42917,        100.8921,         20.4375,        100.9349,        20.44583,        100.9794,        20.45416,        101.0216
        20.4625,        101.0642,        20.47083,        101.1007,        20.47916,        101.1487,         20.4875,         101.186
       20.49583,        101.2282,        20.50417,         101.272,         20.5125,        101.3046,        20.52084,        101.3512
       20.52917,        101.3908,         20.5375,        101.4362,        20.54584,        101.4782,        20.55417,        101.5203
        20.5625,        101.5625,        20.57083,        101.6013,        20.57916,        101.6446,         20.5875,         101.686
       20.59583,        101.7274,        20.60416,        101.7649,         20.6125,        101.8097,        20.62083,        101.8522
       20.62917,        101.8907,         20.6375,        101.9396,        20.64584,        101.9796,        20.65417,        102.0126
        20.6625,        102.0652,        20.67084,        102.1034,        20.67917,        102.1424,         20.6875,        102.1888
       20.69583,        102.2275,        20.70416,        102.2727,         20.7125,        102.3052,        20.72083,        102.3532
       20.72916,        102.3918,         20.7375,        102.4366,        20.74583,        102.4676,        20.75417,        102.5207
        20.7625,        102.5542,        20.77084,        102.6053,        20.77917,        102.6433,         20.7875,        102.6854
       20.79584,         102.723,        20.80417,        102.7686,         20.8125,         102.807,        20.82083,        102.8559
       20.82916,        102.8956,         20.8375,        102.9368,        20.84583,        102.9728,        20.85416,        103.0227
        20.8625,         103.062,        20.87083,        103.1049,        20.87917,        103.1454,         20.8875,        103.1907
       20.89584,        103.2244,        20.90417,        103.2661,         20.9125,        103.3112,        20.92084,        103.3494
       20.92917,         103.399,         20.9375,        103.4367,        20.94583,        103.4818,        20.95416,        103.5211
        20.9625,        103.5618,        20.97083,        103.6066,        20.97916,        103.6494,         20.9875,        103.6898
       20.99583,        103.7325,        21.00417,        103.7676,         21.0125,        103.8133,        21.02084,        103.8579
       21.02917,        103.8926,         21.0375,        103.9343,        21.04584,        103.9732,        21.05417,        104.0197
        21.0625,        104.0597,        21.07083,        104.1061,        21.07916,        104.1417,         21.0875,        104.1803
       21.09583,        104.2268,        21.10416,        104.2675,         21.1125,        104.3054,        21.12083,        104.3488
       21.12917,        104.3975,         21.1375,        104.4384,        21.14584,        104.4783,        21.15417,        104.5173
        21.1625,         104.561,        21.17084,        104.6054,        21.17917,        104.6466,         21.1875,        104.6842
       21.19583,        104.7176,        21.20416,        104.7671,         21.2125,        104.8133,        21.22083,        104.8504
       21.22916,        104.8922,         21.2375,        104.9345,        21.24583,        104.9818,        21.25417,        105.0201
        21.2625,        105.0606,        21.27084,        105.1018,        21.27917,        105.1426,         21.2875,        105.1852
       21.29584,        105.2265,        21.30417,        105.2708,         21.3125,         105.309,        21.32083,        105.3501
       21.32916,        105.3947,         21.3375,         105.437,        21.34583,        105.4765,        21.35416,        105.5207
        21.3625,        105.5552,        21.37083,        105.6044,        21.37917,         105.643,         21.3875,        105.6848
       21.39584,        105.7222,        21.40417,        105.7692,         21.4125,        105.8066,        21.42084,        105.8483
       21.42917,        105.8966,         21.4375,         105.935,        21.44583,        105.9802,        21.45416,        106.0243
        21.4625,        106.0677,        21.47083,        106.1017,        21.47916,        106.1448,         21.4875,        106.1869
       21.49583,        106.2257,        21.50417,        106.2731,         21.5125,        106.3087,        21.52084,         106.353
       21.52917,        106.3928,         21.5375,        106.4358,        21.54584,         106.476,        21.55417,        106.5158
        21.5625,         106.565,        21.57083,        106.6051,        21.57916,        106.6519,         21.5875,        106.6822
       21.59583,         106.724,        21.60416,         106.768,         21.6125,        106.8127,        21.62083,        106.8559
       21.62917,        106.8935,         21.6375,         106.933,        21.64584,         106.976,        21.65417,        107.0166
        21.6625,        107.0565,        21.67084,        107.1026,        21.67917,        107.1421,         21.6875,        107.1822
       21.69583,        107.2276,        21.70416,        107.2663,         21.7125,        107.3147,        21.72083,        107.3478
       21.72916,        107.3843,         21.7375,        107.4346,        21.74583,        107.4777,        21.75417,         107.516
        21.7625,        107.5641,        21.77084,        107.6011,        21.77917,        107.6436,         21.7875,        107.6869
       21.79584,        107.7249,        21.80417,        107.7748,         21.8125,         107.811,        21.82083,        107.8549
       21.82916,        107.8972,         21.8375,        107.9301,        21.84583,        107.9742,        21.85416,        108.0205
        21.8625,        108.0601,        21.87083,        108.1006,        21.87917,        108.1438,         21.8875,        108.1856
       21.89584,         108.231,        21.90417,        108.2737,         21.9125,        108.3162,        21.92084,        108.3504
       21.92917,        108.3888,         21.9375,        108.4331,        21.94583,        108.4712,        21.95416,         108.519
        21.9625,        108.5555,        21.97083,        108.5999,        21.97916,        108.6452,         21.9875,        108.6827
       21.99583,        108.7229,        22.00417,        108.7665,         22.0125,        108.8073,        22.02084,         108.847
       22.02917,        108.8916,         22.0375,          108.94,        22.04584,        108.9719,        22.05417,        109.0187
        22.0625,        109.0581,        22.07083,        109.1045,        22.07916,         109.147,         22.0875,        109.1879
       22.09583,        109.2272,        22.10416,        109.2652,         22.1125,        109.3115,        22.12083,        109.3501
       22.12917,        109.3978,         22.1375,        109.4278,        22.14584,        109.4712,        22.15417,         109.519
        22.1625,        109.5595,        22.17084,        109.6024,        22.17917,         109.636,         22.1875,        109.6826
       22.19583,        109.7317,        22.20416,        109.7735,         22.2125,        109.8118,        22.22083,        109.8531
       22.22916,        109.8884,         22.2375,         109.933,        22.24583,         109.965,        22.25417,        110.0228
        22.2625,        110.0612,        22.27084,         110.097,        22.27917,        110.1444,         22.2875,        110.1873
       22.29584,        110.2299,        22.30417,         110.269,         22.3125,        110.3124,        22.32083,        110.3503
       22.32916,        110.3886,         22.3375,        110.4206,        22.34583,         110.477,        22.35416,        110.5212
        22.3625,        110.5556,        22.37083,        110.5978,        22.37917,        110.6417,         22.3875,         110.681
       22.39584,        110.7256,        22.40417,         110.772,         22.4125,        110.8157,        22.42084,        110.8519
       22.42917,        110.8894,         22.4375,        110.9376,        22.44583,        110.9709,        22.45416,        111.0168
        22.4625,        111.0547,        22.47083,        111.0979,        22.47916,        111.1403,         22.4875,        111.1756
       22.49583,        111.2274,        22.50417,        111.2642,         22.5125,        111.3108,        22.52084,         111.356
       22.52917,        111.3944,         22.5375,        111.4362,        22.54584,        111.4709,        22.55417,        111.5187
        22.5625,        111.5591,        22.57083,        111.5958,        22.57916,        111.6386,         22.5875,        111.6837
       22.59583,        111.7268,        22.60416,        111.7635,         22.6125,        111.8033,        22.62083,        111.8504
       22.62917,        111.8913,         22.6375,        111.9323,        22.64584,        111.9701,        22.65417,        112.0195
        22.6625,        112.0551,        22.67084,        112.0931,        22.67917,        112.1428,         22.6875,         112.186
       22.69583,        112.2259,        22.70416,        112.2633,         22.7125,          112.31,        22.72083,        112.3494
       22.72916,        112.3904,         22.7375,        112.4352,        22.74583,        112.4725,        22.75417,        112.5173
        22.7625,        112.5548,        22.77084,        112.5966,        22.77917,        112.6392,         22.7875,        112.6781
       22.79584,        112.7208,        22.80417,        112.7639,         22.8125,        112.8035,        22.82083,        112.8532
       22.82916,        112.8934,         22.8375,        112.9323,        22.84583,        112.9736,        22.85416,        113.0096
        22.8625,        113.0575,        22.87083,        113.0972,        22.87917,        113.1426,         22.8875,        113.1827
       22.89584,        113.2276,        22.90417,        113.2635,         22.9125,        113.3054,        22.92084,        113.3515
       22.92917,        113.3951,         22.9375,        113.4338,        22.94583,        113.4691,        22.95416,        113.5173
        22.9625,        113.5614,        22.97083,        113.5958,        22.97916,        113.6395,         22.9875,        113.6876
       22.99583,        113.7192,        23.00417,        113.7613,         23.0125,        113.8098,        23.02084,        113.8469
       23.02917,        113.8924,         23.0375,        113.9367,        23.04584,        113.9766,        23.05417,        114.0188
        23.0625,        114.0595,        23.07083,         114.098,        23.07916,        114.1413,         23.0875,        114.1855
       23.09583,        114.2231,        23.10416,        114.2675,         23.1125,        114.3053,        23.12083,        114.3455
       23.12917,         114.394,         23.1375,        114.4336,        23.14584,        114.4716,        23.15417,        114.5183
        23.1625,        114.5583,        23.17084,        114.6049,        23.17917,        114.6416,         23.1875,        114.6893
       23.19583,        114.7218,        23.20416,        114.7671,         23.2125,        114.8054,        23.22083,        114.8487
       23.22916,        114.8946,         23.2375,        114.9374,        23.24583,        114.9748,        23.25417,        115.0133
        23.2625,        115.0635,        23.27084,        115.0959,        23.27917,          115.14,         23.2875,        115.1793
       23.29584,        115.2231,        23.30417,        115.2688,         23.3125,        115.3101,        23.32083,        115.3476
       23.32916,        115.3906,         23.3375,        115.4268,        23.34583,        115.4734,        23.35416,        115.5192
        23.3625,        115.5544,        23.37083,        115.5972,        23.37917,        115.6443,         23.3875,        115.6773
       23.39584,        115.7243,        23.40417,         115.771,         23.4125,        115.8096,        23.42084,        115.8534
       23.42917,        115.8901,         23.4375,        115.9311,        23.44583,        115.9736,        23.45416,         116.018
        23.4625,        116.0551,        23.47083,        116.1077,        23.47916,        116.1343,         23.4875,        116.1779
       23.49583,        116.2241,        23.50417,        116.2688,         23.5125,         116.306,        23.52084,        116.3501
       23.52917,        116.3883,         23.5375,        116.4368,        23.54584,        116.4748,        23.55417,        116.5159
        23.5625,        116.5554,        23.57083,        116.5974,        23.57916,        116.6435,         23.5875,        116.6781
       23.59583,         116.728,        23.60416,        116.7646,         23.6125,        116.8072,        23.62083,        116.8544
       23.62917,        116.8935,         23.6375,         116.934,        23.64584,        116.9771,        23.65417,         117.017
        23.6625,        117.0577,        23.67084,        117.1011,        23.67917,        117.1398,         23.6875,        117.1868
       23.69583,        117.2224,        23.70416,        117.2651,         23.7125,        117.3124,        23.72083,        117.3456
       23.72916,         117.392,         23.7375,        117.4392,        23.74583,        117.4758,        23.75417,        117.5189
        23.7625,        117.5642,        23.77084,        117.5984,        23.77917,        117.6383,         23.7875,        117.6868
       23.79584,         117.728,        23.80417,        117.7626,         23.8125,        117.8075,        23.82083,        117.8518
       23.82916,        117.8891,         23.8375,        117.9306,        23.84583,        117.9746,        23.85416,         118.016
        23.8625,        118.0569,        23.87083,        118.1036,        23.87917,        118.1463,         23.8875,        118.1829
       23.89584,         118.223,        23.90417,        118.2668,         23.9125,        118.3073,        23.92084,        118.3479
       23.92917,        118.3911,         23.9375,        118.4361,        23.94583,        118.4805,        23.95416,          118.51
        23.9625,        118.5587,        23.97083,        118.6018,        23.97916,        118.6393,         23.9875,        118.6813
       23.99583,        118.7244,        24.00417,        118.7686,         24.0125,        118.8132,        24.02084,        118.8509
       24.02917,        118.8961,         24.0375,        118.9365,        24.04584,        118.9819,        24.05417,        119.0197
        24.0625,        119.0646,        24.07083,        119.1061,        24.07916,        119.1366,         24.0875,        119.1847
       24.09583,        119.2244,        24.10416,        119.2667,         24.1125,         119.304,        24.12083,        119.3495
       24.12917,        119.3937,         24.1375,        119.4322,        24.14584,        119.4722,        24.15417,         119.508
        24.1625,         119.554,        24.17084,        119.6061,        24.17917,        119.6419,         24.1875,         119.683
       24.19583,        119.7222,        24.20416,         119.767,         24.2125,        119.8122,        24.22083,        119.8538
       24.22916,        119.8887,         24.2375,        119.9295,        24.24583,        119.9758,        24.25417,        120.0172
        24.2625,        120.0569,        24.27084,        120.0986,        24.27917,        120.1486,         24.2875,        120.1874
       24.29584,        120.2323,        24.30417,        120.2668,         24.3125,        120.3121,        24.32083,        120.3493
       24.32916,         120.389,         24.3375,        120.4268,        24.34583,        120.4706,        24.35416,        120.5173
        24.3625,        120.5541,        24.37083,         120.599,        24.37917,        120.6485,         24.3875,        120.6914
       24.39584,        120.7216,        24.40417,        120.7686,         24.4125,        120.8075,        24.42084,        120.8486
       24.42917,        120.8963,         24.4375,        120.9367,        24.44583,         120.978,        24.45416,        121.0089
        24.4625,        121.0572,        24.47083,        121.1029,        24.47916,        121.1362,         24.4875,        121.1887
       24.49583,         121.222,        24.50417,         121.263,         24.5125,          121.31,        24.52084,        121.3506
       24.52917,         121.396,         24.5375,        121.4346,        24.54584,        121.4778,        24.55417,        121.5115
        24.5625,        121.5588,        24.57083,        121.6059,        24.57916,        121.6392,         24.5875,         121.677
       24.59583,        121.7185,        24.60416,        121.7605,         24.6125,        121.8031,        24.62083,        121.8471
       24.62917,        121.8942,         24.6375,        121.9286,        24.64584,        121.9726,        24.65417,        122.0168
        24.6625,        122.0612,        24.67084,        122.0986,        24.67917,        122.1443,         24.6875,         122.191
       24.69583,        122.2258,        24.70416,        122.2676,         24.7125,        122.3096,        24.72083,        122.3496
       24.72916,         122.389,         24.7375,        122.4238,        24.74583,        122.4719,        24.75417,        122.5116
        24.7625,        122.5608,        24.77084,        122.5984,        24.77917,        122.6392,         24.7875,        122.6772
       24.79584,        122.7245,        24.80417,        122.7705,         24.8125,        122.8025,        24.82083,        122.8438
       24.82916,         122.895,         24.8375,         122.933,        24.84583,        122.9726,        24.85416,        123.0177
        24.8625,        123.0605,        24.87083,         123.098,        24.87917,        123.1395,         24.8875,        123.1826
       24.89584,        123.2261,        24.90417,        123.2757,         24.9125,        123.3134,        24.92084,        123.3524
       24.92917,        123.3864,         24.9375,        123.4331,        24.94583,        123.4728,        24.95416,        123.5199
        24.9625,        123.5524,        24.97083,        123.5996,        24.97916,        123.6368,         24.9875,        123.6863
       24.99583,        123.7282,        25.00417,         123.769,         25.0125,        123.8155,        25.02084,        123.8507
       25.02917,        123.8962,         25.0375,        123.9288,        25.04584,        123.9712,        25.05417,        124.0199
        25.0625,        124.0565,        25.07083,        124.1003,        25.07916,        124.1368,         25.0875,        124.1819
       25.09583,        124.2203,        25.10416,        124.2676,         25.1125,        124.3096,        25.12083,        124.3484
       25.12917,        124.3825,         25.1375,        124.4321,        25.14584,        124.4717,        25.15417,        124.5124
        25.1625,        124.5508,        25.17084,        124.5964,        25.17917,        124.6414,         25.1875,        124.6845
       25.19583,        124.7275,        25.20416,        124.7658,         25.2125,        124.8054,        25.22083,        124.8482
       25.22916,        124.8934,         25.2375,         124.928,        25.24583,         124.975,        25.25417,        125.0152
        25.2625,        125.0595,        25.27084,        125.1038,        25.27917,         125.144,         25.2875,        125.1846
       25.29584,         125.222,        25.30417,         125.268,         25.3125,        125.3075,        25.32083,        125.3436
       25.32916,         125.389,         25.3375,        125.4256,        25.34583,        125.4678,        25.35416,        125.5174
        25.3625,        125.5591,        25.37083,        125.5991,        25.37917,        125.6367,         25.3875,         125.681
       25.39584,        125.7233,        25.40417,        125.7594,         25.4125,        125.8114,        25.42084,        125.8489
       25.42917,        125.8858,         25.4375,        125.9357,        25.44583,        125.9777,        25.45416,        126.0113
        25.4625,        126.0588,        25.47083,        126.1029,        25.47916,        126.1427,         25.4875,        126.1844
       25.49583,        126.2224,        25.50417,        126.2679,         25.5125,        126.3105,        25.52084,         126.352
       25.52917,          126.39,         25.5375,        126.4352,        25.54584,         126.479,        25.55417,        126.5167
        25.5625,        126.5503,        25.57083,        126.5968,        25.57916,        126.6422,         25.5875,        126.6834
       25.59583,        126.7225,        25.60416,        126.7667,         25.6125,          126.81,        25.62083,         126.851
       25.62917,        126.8946,         25.6375,        126.9338,        25.64584,        126.9709,        25.65417,        127.0169
        25.6625,        127.0592,        25.67084,         127.092,        25.67916,         127.142,         25.6875,        127.1825
       25.69584,        127.2134,        25.70416,        127.2641,         25.7125,         127.307,        25.72083,        127.3457
       25.72916,        127.3955,         25.7375,        127.4342,        25.74583,        127.4759,        25.75417,        127.5127
        25.7625,        127.5553,        25.77084,        127.5988,        25.77917,        127.6397,         25.7875,        127.6812
       25.79584,        127.7164,        25.80416,        127.7657,         25.8125,        127.8066,        25.82084,        127.8379
       25.82916,        127.8893,         25.8375,        127.9294,        25.84583,        127.9685,        25.85416,        128.0135
        25.8625,        128.0622,        25.87083,        128.1014,        25.87917,          128.14,         25.8875,        128.1868
       25.89584,        128.2254,        25.90417,        128.2615,         25.9125,        128.3089,        25.92084,        128.3467
       25.92916,        128.3882,         25.9375,        128.4358,        25.94584,        128.4724,        25.95416,        128.5066
        25.9625,         128.553,        25.97083,        128.5949,        25.97916,        128.6311,         25.9875,        128.6834
       25.99583,        128.7249,        26.00417,         128.766,         26.0125,        128.7987,        26.02084,        128.8516
       26.02917,        128.8862,         26.0375,        128.9357,        26.04584,        128.9714,        26.05416,         129.011
        26.0625,        129.0565,        26.07084,        129.0966,        26.07916,        129.1391,         26.0875,        129.1809
       26.09583,        129.2215,        26.10416,        129.2574,         26.1125,        129.3083,        26.12083,        129.3518
       26.12917,        129.3966,         26.1375,        129.4324,        26.14584,        129.4711,        26.15417,        129.5165
        26.1625,        129.5531,        26.17084,        129.5936,        26.17916,         129.634,         26.1875,         129.679
       26.19584,        129.7212,        26.20416,        129.7627,         26.2125,        129.8063,        26.22083,        129.8446
       26.22916,        129.8867,         26.2375,         129.928,        26.24583,        129.9736,        26.25417,        130.0136
        26.2625,         130.051,        26.27084,        130.0978,        26.27917,        130.1367,         26.2875,         130.183
       26.29584,        130.2234,        26.30416,        130.2573,         26.3125,         130.304,        26.32084,        130.3509
       26.32916,        130.3883,         26.3375,        130.4298,        26.34583,        130.4725,        26.35416,        130.5222
        26.3625,        130.5594,        26.37083,        130.6049,        26.37917,        130.6366,         26.3875,        130.6737
       26.39584,        130.7214,        26.40417,        130.7661,         26.4125,        130.8027,        26.42084,         130.845
       26.42916,        130.8859,         26.4375,        130.9298,        26.44584,        130.9729,        26.45416,        131.0121
        26.4625,         131.052,        26.47083,        131.0946,        26.47916,        131.1398,         26.4875,        131.1848
       26.49583,        131.2171,        26.50417,        131.2646,         26.5125,         131.307,        26.52084,        131.3484
       26.52917,        131.3914,         26.5375,        131.4272,        26.54584,        131.4676,        26.55416,        131.5077
        26.5625,         131.556,        26.57084,        131.5941,        26.57916,        131.6371,         26.5875,        131.6776
       26.59583,        131.7211,        26.60416,        131.7574,         26.6125,        131.8014,        26.62083,        131.8403
       26.62917,        131.8836,         26.6375,        131.9273,        26.64584,        131.9734,        26.65417,        132.0112
        26.6625,        132.0491,        26.67084,        132.0956,        26.67916,        132.1403,         26.6875,        132.1795
       26.69584,        132.2193,        26.70416,        132.2631,         26.7125,        132.2993,        26.72083,        132.3428
       26.72916,        132.3902,         26.7375,        132.4241,        26.74583,         132.474,        26.75417,        132.5165
        26.7625,         132.559,        26.77084,         132.598,        26.77917,        132.6394,         26.7875,        132.6784
       26.79584,         132.723,        26.80416,        132.7608,         26.8125,        132.8002,        26.82084,        132.8509
       26.82916,        132.8879,         26.8375,        132.9284,        26.84583,        132.9746,        26.85416,        133.0079
        26.8625,        133.0572,        26.87083,        133.0978,        26.87917,        133.1466,         26.8875,        133.1785
       26.89584,        133.2201,        26.90417,        133.2576,         26.9125,        133.3032,        26.92084,        133.3465
       26.92916,        133.3879,         26.9375,        133.4307,        26.94584,         133.476,        26.95416,        133.5101
        26.9625,        133.5536,        26.97083,        133.5982,        26.97916,         133.632,         26.9875,        133.6739
       26.99583,         133.723,        27.00417,        133.7638,         27.0125,        133.8038,        27.02084,         133.844
       27.02917,         133.885,         27.0375,        133.9302,        27.04584,        133.9712,        27.05416,        134.0134
        27.0625,        134.0598,        27.07084,        134.0967,        27.07916,         134.138,         27.0875,        134.1666
       27.09583,        134.2204,        27.10416,        134.2638,         27.1125,        134.3042,        27.12083,        134.3432
       27.12917,        134.3876,         27.1375,        134.4322,        27.14584,        134.4691,        27.15417,         134.519
        27.1625,        134.5587,        27.17084,         134.595,        27.17916,        134.6359,         27.1875,        134.6814
       27.19584,        134.7184,        27.20416,        134.7652,         27.2125,        134.8034,        27.22083,        134.8386
       27.22916,        134.8855,         27.2375,        134.9293,        27.24583,        134.9689,        27.25417,        135.0076
        27.2625,        135.0528,        27.27084,        135.0957,        27.27917,        135.1379,         27.2875,        135.1869
       27.29584,        135.2252,        27.30416,        135.2596,         27.3125,        135.3052,        27.32084,        135.3505
       27.32916,        135.3891,         27.3375,        135.4285,        27.34583,        135.4677,        27.35416,         135.518
        27.3625,        135.5573,        27.37083,        135.5956,        27.37917,        135.6332,         27.3875,        135.6846
       27.39584,        135.7227,        27.40417,        135.7626,         27.4125,        135.8072,        27.42084,        135.8502
       27.42916,        135.8898,         27.4375,        135.9314,        27.44584,        135.9696,        27.45416,        136.0093
        27.4625,        136.0559,        27.47083,         136.093,        27.47916,        136.1294,         27.4875,        136.1818
       27.49583,        136.2202,        27.50417,        136.2645,         27.5125,         136.307,        27.52084,        136.3494
       27.52917,        136.3892,         27.5375,        136.4322,        27.54584,        136.4743,        27.55416,        136.5128
        27.5625,        136.5554,        27.57084,        136.5973,        27.57916,        136.6371,         27.5875,        136.6734
       27.59583,        136.7224,        27.60416,        136.7628,         27.6125,         136.806,        27.62083,        136.8412
       27.62917,        136.8881,         27.6375,        136.9249,        27.64584,        136.9634,        27.65417,        137.0106
        27.6625,        137.0482,        27.67084,        137.0962,        27.67916,        137.1339,         27.6875,         137.178
       27.69584,         137.225,        27.70416,        137.2676,         27.7125,        137.3092,        27.72083,        137.3486
       27.72916,        137.3885,         27.7375,         137.428,        27.74583,        137.4714,        27.75417,        137.5119
        27.7625,        137.5558,        27.77084,        137.5914,        27.77917,        137.6381,         27.7875,        137.6794
       27.79584,        137.7207,        27.80416,        137.7675,         27.8125,        137.8045,        27.82084,        137.8501
       27.82916,        137.8894,         27.8375,        137.9327,        27.84583,        137.9623,        27.85416,        138.0179
        27.8625,         138.053,        27.87083,        138.0881,        27.87917,        138.1412,         27.8875,         138.187
       27.89584,        138.2244,        27.90417,         138.265,         27.9125,        138.3044,        27.92084,        138.3445
       27.92916,        138.3895,         27.9375,        138.4292,        27.94584,        138.4668,        27.95416,        138.5101
        27.9625,         138.557,        27.97083,        138.5911,        27.97916,         138.631,         27.9875,        138.6774
       27.99583,         138.719,        28.00417,        138.7601,         28.0125,        138.7942,        28.02084,        138.8444
       28.02917,        138.8811,         28.0375,        138.9288,        28.04584,        138.9711,        28.05416,        139.0129
        28.0625,        139.0517,        28.07084,        139.0974,        28.07916,        139.1446,         28.0875,        139.1778
       28.09583,        139.2188,        28.10416,        139.2664,         28.1125,        139.3031,        28.12083,         139.339
       28.12917,        139.3836,         28.1375,        139.4278,        28.14584,        139.4682,        28.15417,         139.515
        28.1625,        139.5519,        28.17084,        139.5966,        28.17916,        139.6369,         28.1875,        139.6753
       28.19584,        139.7186,        28.20416,        139.7515,         28.2125,        139.8049,        28.22083,        139.8476
       28.22916,        139.8861,         28.2375,        139.9254,        28.24583,        139.9728,        28.25417,         140.005
        28.2625,        140.0505,        28.27084,        140.0947,        28.27917,         140.138,         28.2875,        140.1846
       28.29584,        140.2169,        28.30416,         140.258,         28.3125,        140.3024,        28.32084,        140.3485
       28.32916,        140.3882,         28.3375,         140.429,        28.34583,        140.4692,        28.35416,        140.5043
        28.3625,        140.5542,        28.37083,        140.5991,        28.37917,         140.634,         28.3875,        140.6821
       28.39584,        140.7185,        28.40417,        140.7578,         28.4125,        140.7934,        28.42084,        140.8444
       28.42916,        140.8885,         28.4375,        140.9286,        28.44584,         140.966,        28.45416,        141.0087
        28.4625,        141.0579,        28.47083,        141.0951,        28.47916,        141.1338,         28.4875,        141.1806
       28.49583,        141.2216,        28.50417,        141.2598,         28.5125,        141.3055,        28.52084,        141.3485
       28.52917,        141.3862,         28.5375,        141.4298,        28.54584,         141.469,        28.55416,        141.5084
        28.5625,        141.5568,        28.57084,        141.5971,        28.57916,        141.6372,         28.5875,        141.6782
       28.59583,         141.719,        28.60416,        141.7601,         28.6125,        141.8029,        28.62083,        141.8471
       28.62917,        141.8896,         28.6375,        141.9308,        28.64584,        141.9725,        28.65417,        142.0172
        28.6625,        142.0547,        28.67084,        142.1036,        28.67916,        142.1338,         28.6875,        142.1776
       28.69584,        142.2138,        28.70416,        142.2633,         28.7125,        142.3041,        28.72083,        142.3404
       28.72916,        142.3854,         28.7375,        142.4279,        28.74583,        142.4722,        28.75417,        142.5148
        28.7625,         142.553,        28.77084,        142.5969,        28.77917,        142.6422,         28.7875,         142.678
       28.79584,        142.7242,        28.80416,        142.7663,         28.8125,        142.8108,        28.82084,        142.8463
       28.82916,        142.8856,         28.8375,        142.9283,        28.84583,        142.9755,        28.85416,        142.9998
        28.8625,        143.0572,        28.87083,        143.0951,        28.87917,        143.1365,         28.8875,        143.1787
       28.89584,         143.221,        28.90417,        143.2566,         28.9125,        143.3054,        28.92084,        143.3403
       28.92916,        143.3871,         28.9375,        143.4264,        28.94584,        143.4679,        28.95416,         143.508
        28.9625,        143.5526,        28.97083,        143.5911,        28.97916,        143.6306,         28.9875,        143.6762
       28.99583,        143.7229,        29.00417,        143.7634,         29.0125,        143.8058,        29.02084,        143.8373
       29.02917,        143.8868,         29.0375,        143.9336,        29.04584,        143.9689,        29.05416,        144.0059
        29.0625,        144.0464,        29.07084,           144.1,        29.07916,        144.1358,         29.0875,        144.1745
       29.09583,        144.2159,        29.10416,         144.261,         29.1125,        144.3084,        29.12083,        144.3381
       29.12917,        144.3821,         29.1375,         144.427,        29.14584,        144.4715,        29.15417,        144.5108
        29.1625,        144.5526,        29.17084,        144.5935,        29.17916,        144.6289,         29.1875,        144.6808
       29.19584,        144.7182,        29.20416,        144.7566,         29.2125,        144.8046,        29.22083,          144.85
       29.22916,        144.8818,         29.2375,        144.9304,        29.24583,        144.9662,        29.25417,        145.0106
        29.2625,        145.0457,        29.27084,        145.0978,        29.27917,        145.1284,         29.2875,        145.1713
       29.29584,         145.216,        29.30416,          145.26,         29.3125,        145.2996,        29.32084,        145.3406
       29.32916,        145.3921,         29.3375,        145.4242,        29.34583,        145.4732,        29.35416,        145.5083
        29.3625,        145.5545,        29.37083,        145.5926,        29.37917,        145.6413,         29.3875,        145.6744
       29.39584,        145.7153,        29.40417,        145.7633,         29.4125,        145.7982,        29.42084,        145.8388
       29.42916,         145.878,         29.4375,        145.9232,        29.44584,        145.9702,        29.45416,        146.0076
        29.4625,         146.043,        29.47083,        146.0924,        29.47916,        146.1337,         29.4875,         146.182
       29.49583,        146.2158,        29.50417,        146.2602,         29.5125,        146.3008,        29.52084,        146.3369
       29.52917,         146.381,         29.5375,        146.4292,        29.54584,         146.469,        29.55416,        146.5045
        29.5625,        146.5466,        29.57084,         146.596,        29.57916,        146.6367,         29.5875,        146.6742
       29.59583,         146.715,        29.60416,         146.761,         29.6125,        146.8071,        29.62083,        146.8499
       29.62917,        146.8864,         29.6375,        146.9278,        29.64584,        146.9684,        29.65417,        147.0048
        29.6625,        147.0515,        29.67084,        147.0929,        29.67916,        147.1311,         29.6875,        147.1812
       29.69584,        147.2164,        29.70416,        147.2615,         29.7125,        147.3065,        29.72083,        147.3418
       29.72916,        147.3866,         29.7375,        147.4304,        29.74583,        147.4673,        29.75417,        147.5121
        29.7625,        147.5494,        29.77084,        147.5966,        29.77917,        147.6304,         29.7875,        147.6768
       29.79584,        147.7233,        29.80416,        147.7583,         29.8125,           147.8,        29.82084,         147.846
       29.82916,        147.8856,         29.8375,        147.9255,        29.84583,        147.9678,        29.85416,        148.0077
        29.8625,         148.046,        29.87083,        148.0967,        29.87917,        148.1376,         29.8875,        148.1803
       29.89584,         148.222,        29.90417,         148.269,         29.9125,        148.2955,        29.92084,        148.3393
       29.92916,         148.386,         29.9375,        148.4303,        29.94584,        148.4663,        29.95416,        148.5132
        29.9625,        148.5569,        29.97083,        148.5882,        29.97916,        148.6368,         29.9875,        148.6843
       29.99583,        148.7186,        30.00417,        148.7578,         30.0125,        148.8042,        30.02084,         148.845
       30.02917,        148.8858,         30.0375,        148.9294,        30.04584,        148.9585,        30.05416,        149.0034
        30.0625,        149.0472,        30.07084,        149.0856,        30.07916,        149.1314,         30.0875,        149.1764
       30.09583,        149.2105,        30.10416,        149.2621,         30.1125,        149.3011,        30.12083,        149.3451
       30.12917,        149.3814,         30.1375,        149.4263,        30.14584,        149.4693,        30.15417,        149.5137
        30.1625,        149.5473,        30.17084,        149.5968,        30.17916,        149.6286,         30.1875,        149.6708
       30.19584,        149.7194,        30.20416,        149.7604,         30.2125,        149.8035,        30.22083,        149.8413
       30.22916,        149.8865,         30.2375,        149.9292,        30.24583,        149.9621,        30.25417,        150.0091
        30.2625,         150.051,        30.27084,        150.0885,        30.27917,        150.1313,         30.2875,        150.1765
       30.29584,        150.2143,        30.30416,        150.2511,         30.3125,        150.3003,        30.32084,        150.3499
       30.32916,         150.382,         30.3375,        150.4241,        30.34583,          150.47,        30.35416,        150.5068
        30.3625,        150.5539,        30.37083,         150.597,        30.37917,        150.6364,         30.3875,        150.6709
       30.39584,        150.7184,        30.40417,        150.7603,         30.4125,        150.8014,        30.42084,        150.8462
       30.42916,        150.8783,         30.4375,         150.919,        30.44584,        150.9686,        30.45416,        151.0089
        30.4625,        151.0423,        30.47083,        151.0949,        30.47916,        151.1359,         30.4875,        151.1707
       30.49583,        151.2158,        30.50417,        151.2631,         30.5125,        151.2988,        30.52084,        151.3301
       30.52917,        151.3849,         30.5375,        151.4234,        30.54584,         151.466,        30.55416,        151.5078
        30.5625,        151.5516,        30.57084,        151.5875,        30.57916,        151.6373,         30.5875,        151.6721
       30.59583,        151.7066,        30.60416,        151.7471,         30.6125,        151.7975,        30.62083,        151.8366
       30.62917,        151.8806,         30.6375,        151.9305,        30.64584,        151.9663,        30.65417,         152.007
        30.6625,        152.0414,        30.67084,        152.0905,        30.67916,        152.1343,         30.6875,        152.1704
       30.69584,         152.218,        30.70416,        152.2559,         30.7125,        152.3014,        30.72083,        152.3445
       30.72916,         152.385,         30.7375,        152.4293,        30.74583,        152.4639,        30.75417,         152.498
        30.7625,        152.5458,        30.77084,        152.5904,        30.77917,        152.6336,         30.7875,        152.6794
       30.79584,        152.7168,        30.80416,        152.7584,         30.8125,        152.7978,        30.82084,        152.8373
       30.82916,        152.8868,         30.8375,        152.9201,        30.84583,        152.9702,        30.85416,        153.0049
        30.8625,        153.0504,        30.87083,        153.0892,        30.87917,         153.133,         30.8875,        153.1802
       30.89584,        153.2146,        30.90417,        153.2613,         30.9125,        153.2966,        30.92084,        153.3375
       30.92916,        153.3855,         30.9375,        153.4293,        30.94584,        153.4659,        30.95416,        153.5054
        30.9625,        153.5488,        30.97083,        153.5902,        30.97916,        153.6359,         30.9875,        153.6753
       30.99583,        153.7196,        31.00417,        153.7578,         31.0125,        153.7989,        31.02084,        153.8402
       31.02917,        153.8806,         31.0375,        153.9284,        31.04584,        153.9685,        31.05416,         154.005
        31.0625,        154.0484,        31.07084,        154.0967,        31.07916,        154.1314,         31.0875,        154.1724
       31.09583,        154.2152,        31.10416,        154.2579,         31.1125,        154.2984,        31.12083,        154.3387
       31.12917,        154.3873,         31.1375,        154.4251,        31.14584,        154.4706,        31.15417,         154.516
        31.1625,         154.552,        31.17084,        154.5922,        31.17916,        154.6359,         31.1875,        154.6786
       31.19584,        154.7194,        31.20416,        154.7616,         31.2125,        154.8044,        31.22083,        154.8403
       31.22916,        154.8854,         31.2375,          154.92,        31.24583,        154.9659,        31.25417,        155.0118
        31.2625,        155.0448,        31.27084,        155.0923,        31.27917,        155.1272,         31.2875,        155.1787
       31.29584,        155.2144,        31.30416,        155.2629,         31.3125,        155.3012,        31.32084,        155.3349
       31.32916,        155.3812,         31.3375,        155.4274,        31.34583,        155.4646,        31.35416,        155.5146
        31.3625,        155.5506,        31.37083,        155.5937,        31.37917,        155.6371,         31.3875,        155.6793
       31.39584,         155.721,        31.40417,        155.7634,         31.4125,        155.8058,        31.42084,        155.8417
       31.42916,        155.8868,         31.4375,        155.9277,        31.44584,        155.9663,        31.45416,        156.0072
        31.4625,        156.0476,        31.47083,        156.0932,        31.47916,        156.1342,         31.4875,        156.1739
       31.49583,        156.2173,        31.50417,        156.2624,         31.5125,        156.3001,        31.52084,        156.3367
       31.52917,        156.3836,         31.5375,        156.4315,        31.54584,        156.4738,        31.55416,        156.5133
        31.5625,         156.554,        31.57084,        156.5855,        31.57916,        156.6323,         31.5875,        156.6701
       31.59583,        156.7175,        31.60416,        156.7493,         31.6125,        156.7971,        31.62083,        156.8424
       31.62917,         156.886,         31.6375,        156.9276,        31.64584,        156.9684,        31.65417,        157.0111
        31.6625,        157.0487,        31.67084,        157.0916,        31.67916,        157.1318,         31.6875,        157.1827
       31.69584,        157.2204,        31.70416,        157.2511,         31.7125,         157.293,        31.72083,        157.3338
       31.72916,        157.3836,         31.7375,        157.4264,        31.74583,        157.4677,        31.75417,        157.5084
        31.7625,        157.5527,        31.77084,        157.5803,        31.77917,        157.6359,         31.7875,        157.6708
       31.79584,        157.7155,        31.80416,        157.7544,         31.8125,        157.7998,        31.82084,        157.8424
       31.82916,        157.8828,         31.8375,        157.9206,        31.84583,        157.9631,        31.85416,        158.0053
        31.8625,         158.055,        31.87083,        158.0861,        31.87917,        158.1344,         31.8875,        158.1703
       31.89584,        158.2156,        31.90417,        158.2571,         31.9125,         158.296,        31.92084,        158.3417
       31.92916,        158.3816,         31.9375,        158.4281,        31.94584,        158.4594,        31.95416,        158.5049
        31.9625,        158.5486,        31.97083,        158.5857,        31.97916,        158.6269,         31.9875,        158.6765
       31.99583,        158.7072,        32.00416,        158.7599,         32.0125,        158.7999,        32.02083,        158.8368
       32.02917,        158.8762,         32.0375,        158.9244,        32.04584,        158.9656,        32.05416,         159.005
        32.0625,        159.0519,        32.07084,        159.0933,        32.07916,        159.1248,         32.0875,        159.1684
       32.09583,         159.216,        32.10417,        159.2531,         32.1125,        159.2998,        32.12084,        159.3391
       32.12916,        159.3804,         32.1375,         159.421,        32.14583,        159.4665,        32.15417,        159.5097
        32.1625,        159.5513,        32.17084,        159.5878,        32.17916,         159.637,         32.1875,        159.6706
       32.19584,        159.7151,        32.20416,        159.7529,         32.2125,        159.8012,        32.22083,        159.8379
       32.22917,        159.8814,         32.2375,        159.9211,        32.24584,        159.9619,        32.25416,        160.0088
        32.2625,        160.0524,        32.27083,        160.0865,        32.27917,        160.1253,         32.2875,        160.1742
       32.29584,         160.216,        32.30416,        160.2592,         32.3125,        160.2939,        32.32084,        160.3414
       32.32916,        160.3816,         32.3375,        160.4249,        32.34583,        160.4664,        32.35417,        160.5034
        32.3625,        160.5449,        32.37084,        160.5931,        32.37916,        160.6324,         32.3875,        160.6749
       32.39583,        160.7113,        32.40417,        160.7578,         32.4125,        160.7999,        32.42084,        160.8328
       32.42916,        160.8781,         32.4375,        160.9188,        32.44584,        160.9692,        32.45416,        161.0037
        32.4625,        161.0448,        32.47083,        161.0908,        32.47917,        161.1335,         32.4875,        161.1742
       32.49584,         161.214,        32.50416,        161.2533,         32.5125,        161.2999,        32.52083,        161.3381
       32.52917,        161.3788,         32.5375,         161.425,        32.54584,        161.4606,        32.55416,        161.5005
        32.5625,         161.546,        32.57084,        161.5899,        32.57916,        161.6331,         32.5875,        161.6793
       32.59583,        161.7161,        32.60417,        161.7582,         32.6125,        161.7998,        32.62084,        161.8299
       32.62916,        161.8801,         32.6375,        161.9246,        32.64583,        161.9612,        32.65417,        162.0075
        32.6625,        162.0481,        32.67084,         162.094,        32.67916,        162.1339,         32.6875,        162.1604
       32.69584,        162.2117,        32.70416,        162.2601,         32.7125,        162.2971,        32.72083,        162.3409
       32.72917,        162.3832,         32.7375,        162.4208,        32.74584,        162.4597,        32.75416,        162.5062
        32.7625,        162.5436,        32.77083,        162.5876,        32.77917,         162.631,         32.7875,        162.6776
       32.79584,        162.7078,        32.80416,        162.7531,         32.8125,        162.8036,        32.82084,        162.8358
       32.82916,        162.8804,         32.8375,        162.9315,        32.84583,        162.9689,        32.85417,         163.004
        32.8625,         163.051,        32.87084,         163.087,        32.87916,        163.1296,         32.8875,        163.1741
       32.89583,        163.2142,        32.90417,         163.256,         32.9125,           163.3,        32.92084,        163.3336
       32.92916,        163.3798,         32.9375,        163.4279,        32.94584,        163.4599,        32.95416,        163.5066
        32.9625,        163.5505,        32.97083,        163.5874,        32.97917,        163.6256,         32.9875,        163.6748
       32.99584,        163.7167,        33.00416,        163.7558,         33.0125,        163.7994,        33.02083,        163.8375
       33.02917,        163.8777,         33.0375,        163.9292,        33.04584,         163.962,        33.05416,         164.006
        33.0625,        164.0499,        33.07084,        164.0856,        33.07916,        164.1368,         33.0875,        164.1658
       33.09583,        164.2188,        33.10417,        164.2564,         33.1125,        164.3066,        33.12084,        164.3403
       33.12916,        164.3877,         33.1375,        164.4176,        33.14583,        164.4694,        33.15417,        164.5031
        33.1625,        164.5479,        33.17084,        164.5902,        33.17916,        164.6359,         33.1875,        164.6672
       33.19584,        164.7061,        33.20416,        164.7502,         33.2125,         164.797,        33.22083,        164.8379
       33.22917,        164.8753,         33.2375,        164.9258,        33.24584,        164.9691,        33.25416,        165.0089
        33.2625,        165.0441,        33.27083,        165.0898,        33.27917,        165.1316,         33.2875,          165.17
       33.29584,        165.2112,        33.30416,        165.2496,         33.3125,         165.289,        33.32084,         165.338
       33.32916,        165.3791,         33.3375,        165.4202,        33.34583,        165.4594,        33.35417,        165.5124
        33.3625,        165.5456,        33.37084,        165.5844,        33.37916,        165.6322,         33.3875,        165.6722
       33.39583,        165.7126,        33.40417,        165.7554,         33.4125,        165.7889,        33.42084,        165.8386
       33.42916,        165.8761,         33.4375,        165.9223,        33.44584,         165.962,        33.45416,        166.0052
        33.4625,        166.0427,        33.47083,        166.0933,        33.47917,        166.1224,         33.4875,        166.1684
       33.49584,          166.21,        33.50416,        166.2606,         33.5125,        166.2978,        33.52083,        166.3367
       33.52917,         166.385,         33.5375,        166.4122,        33.54584,        166.4599,        33.55416,        166.5069
        33.5625,        166.5401,        33.57084,        166.5806,        33.57916,        166.6301,         33.5875,        166.6734
       33.59583,        166.7139,        33.60417,        166.7502,         33.6125,        166.7989,        33.62084,        166.8357
       33.62916,         166.883,         33.6375,        166.9251,        33.64583,        166.9651,        33.65417,        167.0026
        33.6625,        167.0454,        33.67084,        167.0952,        33.67916,        167.1247,         33.6875,        167.1709
       33.69584,        167.2187,        33.70416,        167.2569,         33.7125,        167.3017,        33.72083,        167.3379
       33.72917,        167.3833,         33.7375,        167.4198,        33.74584,        167.4633,        33.75416,        167.4937
        33.7625,        167.5484,        33.77083,        167.5844,        33.77917,        167.6172,         33.7875,        167.6747
       33.79584,        167.7144,        33.80416,         167.752,         33.8125,        167.7978,        33.82084,        167.8414
       33.82916,        167.8777,         33.8375,        167.9264,        33.84583,        167.9606,        33.85417,        168.0114
        33.8625,        168.0494,        33.87084,        168.0939,        33.87916,        168.1326,         33.8875,        168.1719
       33.89583,        168.2209,        33.90417,        168.2592,         33.9125,         168.299,        33.92084,        168.3405
       33.92916,        168.3818,         33.9375,        168.4226,        33.94584,        168.4668,        33.95416,        168.5108
        33.9625,        168.5477,        33.97083,        168.5964,        33.97917,        168.6468,         33.9875,        168.6746
       33.99584,        168.7228,        34.00416,        168.7656,         34.0125,        168.8099,        34.02083,        168.8484
       34.02917,        168.8905,         34.0375,        168.9271,        34.04584,        168.9693,        34.05416,        169.0115
        34.0625,        169.0604,        34.07084,        169.0955,        34.07916,        169.1377,         34.0875,        169.1816
       34.09583,        169.2238,        34.10417,         169.267,         34.1125,        169.3068,        34.12084,        169.3458
       34.12916,        169.3881,         34.1375,        169.4412,        34.14583,        169.4726,        34.15417,        169.5188
        34.1625,        169.5582,        34.17084,        169.5999,        34.17916,        169.6402,         34.1875,        169.6824
       34.19584,        169.7225,        34.20416,         169.766,         34.2125,        169.8006,        34.22083,         169.848
       34.22917,        169.8942,         34.2375,        169.9262,        34.24584,        169.9705,        34.25416,        170.0102
        34.2625,        170.0552,        34.27083,        170.0994,        34.27917,        170.1388,         34.2875,        170.1825
       34.29584,        170.2276,        34.30416,        170.2686,         34.3125,        170.2978,        34.32084,        170.3468
       34.32916,        170.3832,         34.3375,         170.426,        34.34583,        170.4742,        34.35417,        170.5096
        34.3625,        170.5565,        34.37084,        170.5989,        34.37916,        170.6375,         34.3875,        170.6784
       34.39583,        170.7243,        34.40417,        170.7603,         34.4125,        170.8026,        34.42084,        170.8458
       34.42916,        170.8863,         34.4375,        170.9314,        34.44584,        170.9698,        34.45416,        171.0106
        34.4625,        171.0556,        34.47083,        171.0937,        34.47917,        171.1344,         34.4875,         171.176
       34.49584,        171.2173,        34.50416,        171.2561,         34.5125,        171.2996,        34.52083,        171.3396
       34.52917,        171.3842,         34.5375,        171.4244,        34.54584,         171.467,        34.55416,        171.5088
        34.5625,         171.558,        34.57084,         171.593,        34.57916,        171.6367,         34.5875,        171.6718
       34.59583,        171.7213,        34.60417,        171.7638,         34.6125,        171.8008,        34.62084,        171.8498
       34.62916,        171.8824,         34.6375,        171.9265,        34.64583,        171.9667,        34.65417,        172.0102
        34.6625,        172.0523,        34.67084,        172.0975,        34.67916,        172.1356,         34.6875,        172.1757
       34.69584,        172.2236,        34.70416,        172.2603,         34.7125,        172.3077,        34.72083,        172.3492
       34.72917,        172.3816,         34.7375,        172.4224,        34.74584,        172.4701,        34.75416,        172.5086
        34.7625,        172.5504,        34.77083,        172.5923,        34.77917,        172.6352,         34.7875,        172.6766
       34.79584,        172.7168,        34.80416,        172.7555,         34.8125,        172.7976,        34.82084,        172.8332
       34.82916,        172.8813,         34.8375,         172.923,        34.84583,        172.9616,        34.85417,        172.9994
        34.8625,        173.0497,        34.87084,        173.0904,        34.87916,        173.1337,         34.8875,         173.175
       34.89583,        173.2109,        34.90417,        173.2582,         34.9125,        173.2905,        34.92084,        173.3402
       34.92916,        173.3838,         34.9375,        173.4255,        34.94584,        173.4596,        34.95416,        173.5064
        34.9625,         173.551,        34.97083,         173.592,        34.97917,        173.6286,         34.9875,        173.6735
       34.99584,        173.7158,        35.00416,        173.7613,         35.0125,         173.797,        35.02083,        173.8332
       35.02917,        173.8745,         35.0375,        173.9235,        35.04584,        173.9609,        35.05416,        174.0001
        35.0625,        174.0524,        35.07084,        174.0834,        35.07916,        174.1339,         35.0875,        174.1654
       35.09583,         174.217,        35.10417,        174.2508,         35.1125,        174.2992,        35.12084,        174.3358
       35.12916,        174.3746,         35.1375,        174.4215,        35.14583,        174.4583,        35.15417,        174.5024
        35.1625,        174.5457,        35.17084,         174.583,        35.17916,        174.6309,         35.1875,        174.6712
       35.19584,        174.7168,        35.20416,        174.7628,         35.2125,        174.8031,        35.22083,        174.8399
       35.22917,        174.8718,         35.2375,        174.9119,        35.24584,        174.9596,        35.25416,        174.9992
        35.2625,        175.0426,        35.27083,        175.0784,        35.27917,        175.1315,         35.2875,        175.1779
       35.29584,         175.218,        35.30416,        175.2569,         35.3125,        175.3004,        35.32084,        175.3397
       35.32916,        175.3791,         35.3375,        175.4156,        35.34583,        175.4611,        35.35417,        175.5018
        35.3625,        175.5486,        35.37084,        175.5828,        35.37916,         175.624,         35.3875,         175.659
       35.39583,        175.7056,        35.40417,        175.7554,         35.4125,        175.7912,        35.42084,        175.8358
       35.42916,        175.8722,         35.4375,        175.9153,        35.44584,        175.9602,        35.45416,        176.0051
        35.4625,        176.0349,        35.47083,        176.0889,        35.47917,         176.131,         35.4875,        176.1652
       35.49584,        176.2023,        35.50416,        176.2519,         35.5125,        176.2933,        35.52083,        176.3312
       35.52917,        176.3774,         35.5375,        176.4214,        35.54584,         176.456,        35.55416,        176.4969
        35.5625,        176.5417,        35.57084,        176.5799,        35.57916,        176.6322,         35.5875,        176.6762
       35.59583,        176.7142,        35.60417,        176.7536,         35.6125,        176.7956,        35.62084,        176.8429
       35.62916,        176.8793,         35.6375,        176.9164,        35.64583,        176.9644,        35.65417,        177.0066
        35.6625,        177.0479,        35.67084,        177.0862,        35.67916,         177.123,         35.6875,         177.158
       35.69584,        177.2058,        35.70416,        177.2575,         35.7125,        177.2856,        35.72083,        177.3404
       35.72917,        177.3804,         35.7375,         177.422,        35.74584,         177.458,        35.75416,        177.5013
        35.7625,        177.5531,        35.77083,         177.588,        35.77917,        177.6252,         35.7875,         177.675
       35.79584,        177.7106,        35.80416,        177.7517,         35.8125,        177.7903,        35.82084,        177.8384
       35.82916,        177.8769,         35.8375,        177.9218,        35.84583,        177.9626,        35.85417,        178.0063
        35.8625,        178.0436,        35.87084,        178.0831,        35.87916,        178.1284,         35.8875,        178.1686
       35.89583,         178.215,        35.90417,        178.2517,         35.9125,        178.3002,        35.92084,        178.3371
       35.92916,          178.38,         35.9375,         178.423,        35.94584,        178.4604,        35.95416,        178.5072
        35.9625,        178.5532,        35.97083,        178.5854,        35.97917,        178.6269,         35.9875,        178.6664
       35.99584,        178.7088,        36.00416,        178.7516,         36.0125,        178.7958,        36.02083,        178.8369
       36.02917,        178.8872,         36.0375,         178.918,        36.04584,        178.9607,        36.05416,        179.0035
        36.0625,         179.048,        36.07084,        179.0924,        36.07916,         179.122,         36.0875,        179.1687
       36.09583,        179.2153,        36.10417,        179.2545,         36.1125,         179.291,        36.12084,        179.3442
       36.12916,        179.3824,         36.1375,        179.4205,        36.14583,        179.4603,        36.15417,        179.5097
        36.1625,        179.5457,        36.17084,         179.589,        36.17916,        179.6216,         36.1875,        179.6757
       36.19584,        179.7129,        36.20416,        179.7641,         36.2125,        179.7909,        36.22083,        179.8451
       36.22917,        179.8826,         36.2375,        179.9262,        36.24584,        179.9631,        36.25416,        180.0058
        36.2625,        180.0466,        36.27083,        180.0874,        36.27917,        180.1278,         36.2875,        180.1706
       36.29584,        180.2147,        36.30416,        180.2567,         36.3125,        180.3045,        36.32084,        180.3469
       36.32916,        180.3853,         36.3375,        180.4269,        36.34583,        180.4686,        36.35417,        180.5056
        36.3625,        180.5452,        36.37084,        180.5847,        36.37916,        180.6269,         36.3875,        180.6668
       36.39583,        180.7101,        36.40417,        180.7549,         36.4125,        180.7941,        36.42084,        180.8269
       36.42916,        180.8795,         36.4375,        180.9225,        36.44584,        180.9648,        36.45416,        181.0039
        36.4625,        181.0467,        36.47083,        181.0836,        36.47917,        181.1254,         36.4875,        181.1748
       36.49584,        181.2149,        36.50416,        181.2571,         36.5125,        181.2964,        36.52083,        181.3301
       36.52917,        181.3794,         36.5375,        181.4204,        36.54584,        181.4635,        36.55416,         181.512
        36.5625,        181.5446,        36.57084,        181.5912,        36.57916,        181.6302,         36.5875,        181.6704
       36.59583,        181.7126,        36.60417,        181.7602,         36.6125,           181.8,        36.62084,        181.8398
       36.62916,        181.8834,         36.6375,         181.923,        36.64583,        181.9592,        36.65417,        182.0087
        36.6625,        182.0509,        36.67084,        182.0946,        36.67916,         182.124,         36.6875,        182.1755
       36.69584,        182.2116,        36.70416,        182.2569,         36.7125,         182.303,        36.72083,        182.3303
       36.72917,        182.3784,         36.7375,        182.4181,        36.74584,         182.467,        36.75416,        182.5119
        36.7625,          182.55,        36.77083,        182.5801,        36.77917,        182.6285,         36.7875,        182.6718
       36.79584,        182.7084,        36.80416,        182.7538,         36.8125,        182.7926,        36.82084,        182.8388
       36.82916,        182.8778,         36.8375,        182.9234,        36.84583,        182.9632,        36.85417,        183.0064
        36.8625,        183.0441,        36.87084,        183.0901,        36.87916,        183.1359,         36.8875,        183.1738
       36.89583,        183.2119,        36.90417,        183.2548,         36.9125,        183.2896,        36.92084,        183.3276
       36.92916,        183.3841,         36.9375,          183.42,        36.94584,        183.4606,        36.95416,        183.5086
        36.9625,        183.5464,        36.97083,        183.5807,        36.97917,        183.6214,         36.9875,        183.6747
       36.99584,        183.7119,        37.00416,         183.751,         37.0125,        183.7912,        37.02083,        183.8397
       37.02917,        183.8834,         37.0375,        183.9172,        37.04584,        183.9581,        37.05416,        183.9998
        37.0625,        184.0466,        37.07084,         184.085,        37.07916,        184.1301,         37.0875,        184.1725
       37.09583,        184.2088,        37.10417,        184.2488,         37.1125,        184.3002,        37.12084,        184.3361
       37.12916,        184.3758,         37.1375,        184.4154,        37.14583,        184.4629,        37.15417,           184.5
        37.1625,        184.5422,        37.17084,        184.5918,        37.17916,        184.6279,         37.1875,        184.6726
       37.19584,        184.7155,        37.20416,        184.7419,         37.2125,         184.798,        37.22083,        184.8317
       37.22917,        184.8763,         37.2375,        184.9236,        37.24584,        184.9644,        37.25416,        185.0079
        37.2625,        185.0405,        37.27083,        185.0911,        37.27917,        185.1304,         37.2875,        185.1704
       37.29584,        185.2139,        37.30416,        185.2585,         37.3125,        185.2895,        37.32084,        185.3226
       37.32916,        185.3832,         37.3375,        185.4201,        37.34583,        185.4625,        37.35417,        185.5016
        37.3625,        185.5402,        37.37084,        185.5824,        37.37916,        185.6354,         37.3875,        185.6709
       37.39583,        185.7088,        37.40417,         185.758,         37.4125,        185.7955,        37.42084,        185.8406
       37.42916,        185.8812,         37.4375,        185.9201,        37.44584,        185.9633,        37.45416,        185.9917
        37.4625,        186.0472,        37.47083,         186.092,        37.47917,        186.1298,         37.4875,        186.1733
       37.49584,        186.2149,        37.50416,        186.2554,         37.5125,        186.2974,        37.52083,        186.3352
       37.52917,         186.382,         37.5375,        186.4234,        37.54584,        186.4617,        37.55416,        186.5017
        37.5625,        186.5463,        37.57084,        186.5862,        37.57916,        186.6255,         37.5875,        186.6675
       37.59583,         186.708,        37.60417,        186.7519,         37.6125,        186.7868,        37.62084,        186.8302
       37.62916,        186.8704,         37.6375,        186.9091,        37.64583,        186.9542,        37.65417,        186.9983
        37.6625,        187.0426,        37.67084,         187.083,        37.67916,         187.123,         37.6875,        187.1676
       37.69584,        187.2083,        37.70416,        187.2465,         37.7125,        187.2925,        37.72083,        187.3266
       37.72917,        187.3736,         37.7375,        187.4097,        37.74584,         187.459,        37.75416,         187.499
        37.7625,        187.5394,        37.77083,        187.5849,        37.77917,         187.626,         37.7875,        187.6706
       37.79584,        187.7159,        37.80416,        187.7536,         37.8125,        187.7874,        37.82084,        187.8348
       37.82916,        187.8741,         37.8375,        187.9187,        37.84583,        187.9591,        37.85417,        187.9983
        37.8625,        188.0497,        37.87084,        188.0804,        37.87916,        188.1222,         37.8875,        188.1681
       37.89583,        188.2145,        37.90417,        188.2425,         37.9125,        188.2965,        37.92084,          188.34
       37.92916,        188.3766,         37.9375,        188.4181,        37.94584,        188.4664,        37.95416,        188.5034
        37.9625,        188.5456,        37.97083,        188.5821,        37.97917,        188.6334,         37.9875,        188.6646
       37.99584,        188.7084,        38.00416,        188.7522,         38.0125,        188.7965,        38.02083,        188.8364
       38.02917,        188.8796,         38.0375,        188.9176,        38.04584,        188.9634,        38.05416,        189.0025
        38.0625,        189.0506,        38.07084,        189.0941,        38.07916,        189.1326,         38.0875,        189.1719
       38.09583,        189.2075,        38.10417,        189.2532,         38.1125,        189.2953,        38.12084,        189.3386
       38.12916,        189.3722,         38.1375,        189.4164,        38.14583,        189.4628,        38.15417,        189.5068
        38.1625,        189.5448,        38.17084,        189.5917,        38.17916,        189.6294,         38.1875,        189.6665
       38.19584,        189.7108,        38.20416,        189.7528,         38.2125,        189.7976,        38.22083,        189.8434
       38.22917,         189.877,         38.2375,        189.9189,        38.24584,        189.9674,        38.25416,        190.0075
        38.2625,        190.0505,        38.27083,         190.085,        38.27917,        190.1245,         38.2875,        190.1692
       38.29584,        190.2135,        38.30416,         190.257,         38.3125,        190.3015,        38.32084,        190.3409
       38.32916,        190.3766,         38.3375,        190.4115,        38.34583,        190.4607,        38.35417,        190.5038
        38.3625,         190.549,        38.37084,        190.5931,        38.37916,        190.6291,         38.3875,        190.6629
       38.39583,        190.7105,        38.40417,        190.7528,         38.4125,        190.7938,        38.42084,        190.8396
       38.42916,        190.8831,         38.4375,        190.9213,        38.44584,        190.9538,        38.45416,        191.0015
        38.4625,        191.0468,        38.47083,        191.0873,        38.47917,         191.128,         38.4875,         191.163
       38.49584,        191.2106,        38.50416,        191.2573,         38.5125,        191.2958,        38.52083,        191.3408
       38.52917,        191.3807,         38.5375,        191.4252,        38.54584,        191.4533,        38.55416,        191.4976
        38.5625,        191.5355,        38.57084,        191.5874,        38.57916,        191.6286,         38.5875,        191.6749
       38.59583,        191.7066,        38.60417,        191.7536,         38.6125,        191.7942,        38.62084,        191.8375
       38.62916,        191.8709,         38.6375,         191.922,        38.64583,        191.9576,        38.65417,         191.998
        38.6625,         192.042,        38.67084,        192.0897,        38.67916,        192.1334,         38.6875,        192.1675
       38.69584,        192.2099,        38.70416,        192.2629,         38.7125,        192.3034,        38.72083,        192.3344
       38.72917,        192.3625,         38.7375,         192.428,        38.74584,        192.4598,        38.75416,        192.5026
        38.7625,        192.5477,        38.77083,        192.5915,        38.77917,        192.6278,         38.7875,        192.6663
       38.79584,        192.7118,        38.80416,        192.7502,         38.8125,        192.7945,        38.82084,        192.8389
       38.82916,          192.88,         38.8375,         192.917,        38.84583,        192.9672,        38.85417,        193.0028
        38.8625,        193.0399,        38.87084,        193.0808,        38.87916,        193.1223,         38.8875,        193.1676
       38.89583,        193.2114,        38.90417,         193.252,         38.9125,        193.2911,        38.92084,        193.3436
       38.92916,        193.3789,         38.9375,        193.4204,        38.94584,        193.4603,        38.95416,         193.506
        38.9625,        193.5482,        38.97083,        193.5958,        38.97917,        193.6247,         38.9875,        193.6707
       38.99584,        193.7081,        39.00416,        193.7466,         39.0125,        193.7947,        39.02083,        193.8354
       39.02917,        193.8797,         39.0375,        193.9181,        39.04584,        193.9609,        39.05416,        194.0105
        39.0625,        194.0474,        39.07084,        194.0801,        39.07916,        194.1197,         39.0875,        194.1668
       39.09583,        194.2213,        39.10417,        194.2531,         39.1125,        194.2996,        39.12084,        194.3274
       39.12916,        194.3755,         39.1375,        194.4151,        39.14583,        194.4586,        39.15417,        194.5036
        39.1625,        194.5364,        39.17084,        194.5874,        39.17916,        194.6288,         39.1875,        194.6761
       39.19584,        194.7213,        39.20416,        194.7581,         39.2125,        194.7934,        39.22083,        194.8377
       39.22917,        194.8731,         39.2375,        194.9201,        39.24584,        194.9612,        39.25416,        194.9991
        39.2625,        195.0366,        39.27083,        195.0864,        39.27917,        195.1304,         39.2875,        195.1634
       39.29584,        195.2093,        39.30416,        195.2596,         39.3125,         195.287,        39.32084,        195.3364
       39.32916,        195.3815,         39.3375,        195.4264,        39.34583,        195.4613,        39.35417,        195.5032
        39.3625,        195.5425,        39.37084,        195.5774,        39.37916,        195.6248,         39.3875,        195.6694
       39.39583,        195.7154,        39.40417,        195.7568,         39.4125,        195.7899,        39.42084,        195.8337
       39.42916,        195.8786,         39.4375,        195.9214,        39.44584,        195.9676,        39.45416,        195.9951
        39.4625,        196.0437,        39.47083,        196.0864,        39.47917,        196.1316,         39.4875,        196.1698
       39.49584,        196.2068,        39.50416,        196.2568,         39.5125,        196.2988,        39.52083,        196.3321
       39.52917,        196.3793,         39.5375,        196.4167,        39.54584,        196.4662,        39.55416,        196.5066
        39.5625,        196.5358,        39.57084,        196.5864,        39.57916,        196.6253,         39.5875,        196.6694
       39.59583,        196.7071,        39.60417,        196.7487,         39.6125,        196.7874,        39.62084,        196.8335
       39.62916,         196.867,         39.6375,        196.9165,        39.64583,        196.9644,        39.65417,         196.998
        39.6625,        197.0324,        39.67084,        197.0813,        39.67916,        197.1281,         39.6875,        197.1653
       39.69584,        197.2068,        39.70416,         197.252,         39.7125,        197.2944,        39.72083,        197.3274
       39.72917,        197.3628,         39.7375,         197.419,        39.74584,        197.4668,        39.75416,        197.5043
        39.7625,        197.5422,        39.77083,         197.584,        39.77917,        197.6289,         39.7875,         197.666
       39.79584,        197.7084,        39.80416,        197.7522,         39.8125,        197.7837,        39.82084,        197.8396
       39.82916,         197.883,         39.8375,        197.9242,        39.84583,        197.9638,        39.85417,        197.9902
        39.8625,        198.0372,        39.87084,        198.0806,        39.87916,         198.125,         39.8875,        198.1711
       39.89583,        198.2082,        39.90417,        198.2494,         39.9125,        198.2957,        39.92084,        198.3409
       39.92916,        198.3778,         39.9375,        198.4225,        39.94584,        198.4598,        39.95416,        198.4977
        39.9625,        198.5465,        39.97083,        198.5867,        39.97917,        198.6275,         39.9875,         198.671
       39.99584,        198.7061,        40.00416,        198.7496,         40.0125,        198.7883,        40.02083,        198.8366
       40.02917,        198.8791,         40.0375,        198.9251,        40.04584,        198.9572,        40.05416,        199.0104
        40.0625,        199.0395,        40.07084,        199.0852,        40.07916,        199.1304,         40.0875,        199.1738
       40.09583,        199.2113,        40.10417,        199.2601,         40.1125,        199.2955,        40.12084,        199.3402
       40.12916,        199.3681,         40.1375,        199.4179,        40.14583,        199.4601,        40.15417,        199.4945
        40.1625,        199.5354,        40.17084,        199.5882,        40.17916,        199.6278,         40.1875,        199.6621
       40.19584,        199.7066,        40.20416,        199.7562,         40.2125,        199.8034,        40.22083,        199.8376
       40.22917,        199.8811,         40.2375,        199.9279,        40.24584,        199.9623,        40.25416,        200.0006
        40.2625,        200.0493,        40.27083,        200.0854,        40.27917,        200.1238,         40.2875,        200.1694
       40.29584,        200.2074,        40.30416,        200.2402,         40.3125,        200.2956,        40.32084,        200.3336
       40.32916,        200.3713,         40.3375,        200.4175,        40.34583,        200.4547,        40.35417,        200.4966
        40.3625,        200.5499,        40.37084,        200.5846,        40.37916,        200.6256,         40.3875,        200.6664
       40.39583,        200.7068,        40.40417,         200.759,         40.4125,        200.8003,        40.42084,        200.8366
       40.42916,        200.8802,         40.4375,        200.9208,        40.44584,        200.9644,        40.45416,         200.999
        40.4625,        201.0505,        40.47083,        201.0872,        40.47917,        201.1318,         40.4875,        201.1587
       40.49584,        201.2082,        40.50416,        201.2423,         40.5125,        201.2936,        40.52083,        201.3368
       40.52917,        201.3779,         40.5375,        201.4219,        40.54584,         201.456,        40.55416,        201.5025
        40.5625,        201.5408,        40.57084,        201.5857,        40.57916,        201.6167,         40.5875,        201.6676
       40.59583,        201.7099,        40.60417,        201.7492,         40.6125,        201.7925,        40.62084,        201.8361
       40.62916,          201.88,         40.6375,        201.9206,        40.64583,        201.9588,        40.65417,        202.0006
        40.6625,        202.0354,        40.67084,        202.0814,        40.67916,        202.1306,         40.6875,        202.1613
       40.69584,         202.211,        40.70416,        202.2517,         40.7125,        202.2965,        40.72083,        202.3376
       40.72917,        202.3815,         40.7375,        202.4267,        40.74584,        202.4625,        40.75416,        202.5019
        40.7625,        202.5514,        40.77083,        202.5837,        40.77917,        202.6333,         40.7875,        202.6756
       40.79584,        202.7144,        40.80416,        202.7582,         40.8125,        202.7906,        40.82084,        202.8438
       40.82916,        202.8752,         40.8375,        202.9165,        40.84583,        202.9561,        40.85417,        203.0008
        40.8625,        203.0447,        40.87084,        203.0819,        40.87916,        203.1281,         40.8875,        203.1695
       40.89583,        203.2089,        40.90417,        203.2518,         40.9125,        203.2944,        40.92084,        203.3346
       40.92916,        203.3739,         40.9375,        203.4279,        40.94584,        203.4648,        40.95416,        203.5044
        40.9625,        203.5424,        40.97083,        203.5872,        40.97917,        203.6288,         40.9875,          203.67
       40.99584,        203.7035,        41.00416,        203.7481,         41.0125,        203.8016,        41.02083,        203.8362
       41.02917,        203.8705,         41.0375,        203.9136,        41.04584,        203.9629,        41.05416,        204.0081
        41.0625,        204.0487,        41.07084,        204.0876,        41.07916,        204.1265,         41.0875,        204.1665
       41.09583,        204.2034,        41.10417,        204.2494,         41.1125,        204.2906,        41.12084,        204.3337
       41.12916,        204.3656,         41.1375,        204.4161,        41.14583,        204.4568,        41.15417,        204.4984
        41.1625,        204.5477,        41.17084,        204.5843,        41.17916,        204.6256,         41.1875,        204.6709
       41.19584,         204.713,        41.20416,        204.7551,         41.2125,         204.785,        41.22083,        204.8334
       41.22917,        204.8797,         41.2375,        204.9196,        41.24584,        204.9688,        41.25416,        205.0047
        41.2625,        205.0411,        41.27083,        205.0809,        41.27917,        205.1254,         41.2875,        205.1741
       41.29584,        205.2093,        41.30416,        205.2481,         41.3125,        205.2957,        41.32084,         205.323
       41.32916,        205.3722,         41.3375,        205.4136,        41.34583,        205.4597,        41.35417,        205.4995
        41.3625,        205.5497,        41.37084,        205.5884,        41.37916,        205.6226,         41.3875,        205.6677
       41.39583,        205.7047,        41.40417,        205.7487,         41.4125,        205.7882,        41.42084,        205.8319
       41.42916,         205.878,         41.4375,        205.9206,        41.44584,        205.9528,        41.45416,        206.0009
        41.4625,        206.0418,        41.47083,        206.0832,        41.47917,        206.1297,         41.4875,        206.1596
       41.49584,        206.2037,        41.50416,        206.2575,         41.5125,        206.2844,        41.52083,        206.3348
       41.52917,        206.3819,         41.5375,        206.4214,        41.54584,         206.464,        41.55416,        206.5021
        41.5625,        206.5478,        41.57084,        206.5894,        41.57916,        206.6352,         41.5875,        206.6722
       41.59583,         206.709,        41.60417,        206.7477,         41.6125,        206.7967,        41.62084,        206.8394
       41.62916,        206.8765,         41.6375,        206.9197,        41.64583,        206.9606,        41.65417,        206.9968
        41.6625,        207.0376,        41.67084,        207.0852,        41.67916,        207.1284,         41.6875,        207.1659
       41.69584,        207.2173,        41.70416,        207.2476,         41.7125,        207.3012,        41.72083,        207.3305
       41.72917,        207.3736,         41.7375,        207.4111,        41.74584,        207.4438,        41.75416,        207.4949
        41.7625,        207.5493,        41.77083,        207.5884,        41.77917,        207.6313,         41.7875,        207.6648
       41.79584,        207.7141,        41.80416,        207.7515,         41.8125,        207.7956,        41.82084,        207.8328
       41.82916,         207.877,         41.8375,        207.9148,        41.84583,        207.9547,        41.85417,        207.9995
        41.8625,        208.0285,        41.87084,        208.0853,        41.87916,        208.1246,         41.8875,        208.1587
       41.89583,        208.1984,        41.90417,        208.2461,         41.9125,        208.2919,        41.92084,        208.3355
       41.92916,        208.3714,         41.9375,        208.4196,        41.94584,        208.4629,        41.95416,        208.4986
        41.9625,        208.5351,        41.97083,        208.5848,        41.97917,        208.6296,         41.9875,          208.67
       41.99584,        208.7092,        42.00416,        208.7459,         42.0125,        208.7943,        42.02083,        208.8337
       42.02917,        208.8752,         42.0375,        208.9193,        42.04584,        208.9578,        42.05416,        209.0072
        42.0625,        209.0465,        42.07084,         209.087,        42.07916,        209.1289,         42.0875,        209.1632
       42.09583,        209.2123,        42.10417,        209.2576,         42.1125,        209.2933,        42.12084,         209.334
       42.12916,         209.373,         42.1375,        209.4119,        42.14583,        209.4612,        42.15417,        209.5004
        42.1625,        209.5454,        42.17084,        209.5866,        42.17916,        209.6297,         42.1875,        209.6699
       42.19584,        209.7058,        42.20416,         209.753,         42.2125,        209.7929,        42.22083,        209.8299
       42.22917,        209.8823,         42.2375,        209.9178,        42.24584,        209.9678,        42.25416,        209.9994
        42.2625,        210.0476,        42.27083,        210.0901,        42.27917,        210.1288,         42.2875,        210.1718
       42.29584,        210.2066,        42.30416,        210.2524,         42.3125,        210.2959,        42.32084,         210.333
       42.32916,        210.3808,         42.3375,         210.411,        42.34583,        210.4596,        42.35417,        210.5006
        42.3625,        210.5444,        42.37084,        210.5901,        42.37916,        210.6197,         42.3875,        210.6668
       42.39583,        210.7121,        42.40417,         210.742,         42.4125,         210.796,        42.42084,         210.835
       42.42916,        210.8686,         42.4375,        210.9176,        42.44584,        210.9582,        42.45416,         211.005
        42.4625,         211.046,        42.47083,        211.0883,        42.47917,        211.1262,         42.4875,        211.1652
       42.49584,        211.2102,        42.50416,        211.2512,         42.5125,        211.2935,        42.52083,         211.334
       42.52917,        211.3777,         42.5375,         211.419,        42.54584,        211.4664,        42.55416,        211.4906
        42.5625,         211.544,        42.57084,         211.584,        42.57916,        211.6272,         42.5875,        211.6644
       42.59583,        211.7149,        42.60417,        211.7544,         42.6125,        211.7954,        42.62084,        211.8337
       42.62916,        211.8765,         42.6375,        211.9168,        42.64583,        211.9597,        42.65417,        212.0024
        42.6625,        212.0436,        42.67084,        212.0812,        42.67916,        212.1276,         42.6875,        212.1653
       42.69584,        212.2091,        42.70416,        212.2524,         42.7125,        212.2924,        42.72083,        212.3389
       42.72917,        212.3796,         42.7375,        212.4218,        42.74584,        212.4611,        42.75416,         212.505
        42.7625,        212.5434,        42.77083,        212.5869,        42.77917,        212.6272,         42.7875,        212.6577
       42.79584,        212.7082,        42.80416,        212.7506,         42.8125,        212.7946,        42.82084,        212.8437
       42.82916,        212.8757,         42.8375,        212.9045,        42.84583,        212.9606,        42.85417,        213.0041
        42.8625,        213.0422,        42.87084,         213.082,        42.87916,         213.131,         42.8875,         213.174
       42.89583,        213.2073,        42.90417,        213.2533,         42.9125,        213.2975,        42.92084,        213.3424
       42.92916,        213.3719,         42.9375,        213.4209,        42.94584,        213.4572,        42.95416,         213.506
        42.9625,        213.5444,        42.97083,        213.5755,        42.97917,         213.628,         42.9875,        213.6727
       42.99584,        213.7024,        43.00416,        213.7572,         43.0125,        213.7932,        43.02083,        213.8388
       43.02917,        213.8763,         43.0375,        213.9176,        43.04584,        213.9632,        43.05416,        214.0012
        43.0625,        214.0392,        43.07084,        214.0894,        43.07916,        214.1244,         43.0875,        214.1666
       43.09583,        214.2096,        43.10417,        214.2511,         43.1125,        214.2984,        43.12084,         214.332
       43.12916,        214.3787,         43.1375,        214.4213,        43.14583,        214.4601,        43.15417,        214.5028
        43.1625,        214.5425,        43.17084,        214.5855,        43.17916,        214.6264,         43.1875,        214.6696
       43.19584,        214.7092,        43.20416,        214.7445,         43.2125,        214.7935,        43.22083,        214.8345
       43.22917,        214.8703,         43.2375,        214.9171,        43.24584,        214.9592,        43.25416,        214.9994
        43.2625,        215.0473,        43.27083,        215.0895,        43.27917,        215.1247,         43.2875,        215.1638
       43.29584,        215.2099,        43.30416,        215.2543,         43.3125,        215.2934,        43.32084,        215.3361
       43.32916,        215.3785,         43.3375,        215.4277,        43.34583,        215.4602,        43.35417,        215.5074
        43.3625,        215.5412,        43.37084,        215.5877,        43.37916,        215.6275,         43.3875,        215.6708
       43.39583,         215.706,        43.40417,        215.7486,         43.4125,        215.7848,        43.42084,        215.8374
       43.42916,        215.8674,         43.4375,        215.9209,        43.44584,        215.9583,        43.45416,            216.
        43.4625,        216.0408,        43.47083,        216.0878,        43.47917,          216.13,         43.4875,        216.1706
       43.49584,         216.209,        43.50416,        216.2573,         43.5125,        216.2928,        43.52083,        216.3376
       43.52917,        216.3687,         43.5375,        216.4176,        43.54584,        216.4542,        43.55416,         216.502
        43.5625,        216.5423,        43.57084,        216.5858,        43.57916,         216.623,         43.5875,        216.6696
       43.59583,        216.7075,        43.60417,        216.7526,         43.6125,         216.797,        43.62084,        216.8288
       43.62916,        216.8763,         43.6375,        216.9065,        43.64583,        216.9635,        43.65417,        217.0042
        43.6625,        217.0416,        43.67084,        217.0791,        43.67916,         217.112,         43.6875,        217.1659
       43.69584,        217.2088,        43.70416,        217.2552,         43.7125,        217.2927,        43.72083,        217.3404
       43.72917,        217.3742,         43.7375,        217.4147,        43.74584,        217.4706,        43.75416,         217.497
        43.7625,        217.5409,        43.77083,         217.587,        43.77917,        217.6293,         43.7875,         217.663
       43.79584,        217.7164,        43.80416,        217.7558,         43.8125,        217.7993,        43.82084,        217.8283
       43.82916,        217.8686,         43.8375,        217.9166,        43.84583,        217.9558,        43.85417,        218.0031
        43.8625,        218.0437,        43.87084,         218.083,        43.87916,        218.1197,         43.8875,        218.1674
       43.89583,        218.2028,        43.90417,        218.2455,         43.9125,        218.2927,        43.92084,        218.3332
       43.92916,        218.3803,         43.9375,        218.4139,        43.94584,        218.4592,        43.95416,        218.4972
        43.9625,        218.5314,        43.97083,        218.5818,        43.97917,         218.622,         43.9875,        218.6599
** 
** MATERIALS
** 
*Material, name=Vitrimer
*Depvar
    157,
*User Material, constants=19
1000.,     13.1868,     1157.36,     12.4347,       1200.,     212490., 1.29361e+06,   0.0002486
        900.,          4.,      0.0001,         50.,        205.,    1.75e-05,      0.0077,    -3.51712
     52.4274,         10.,         20.
** 
** BOUNDARY CONDITIONS
** 
** Name: BC-2 Type: Displacement/Rotation
*Boundary
Set-17, 3, 3
** Name: BC-3 Type: Displacement/Rotation
*Boundary
Set-18, 3, 3
** Name: BC-4 Type: Symmetry/Antisymmetry/Encastre
*Boundary
Set-13, XSYMM
** Name: BC-5 Type: Symmetry/Antisymmetry/Encastre
*Boundary
Set-16, YSYMM
** Name: BC-6 Type: Displacement/Rotation
*Boundary
Set-15, 1, 1
Set-15, 2, 2
Set-15, 3, 3
Set-15, 4, 4
Set-15, 5, 5
Set-15, 6, 6
** 
** PREDEFINED FIELDS
** 
** Name: Initial Temp   Type: Temperature
*Initial Conditions, type=TEMPERATURE
Set-5, 0.
** ----------------------------------------------------------------
** 
** STEP: Temp_up
** 
*Step, name=Temp_up, nlgeom=YES, inc=90000
*Static
0.01, 44., 0.0001, 0.01
** 
** PREDEFINED FIELDS
** 
** Name: Curing   Type: Temperature
*Temperature, amplitude=Temp_up
Set-5, 1.
** 
** OUTPUT REQUESTS
** 
*Restart, write, frequency=0
** 
** FIELD OUTPUT: F-Output-1
** 
*Output, field
*Node Output
CF, NT, RF, U
*Element Output, directions=YES
LE, MISES, PE, PEEQ, PEMAG, S, SDV, TEMP
*Contact Output
CDISP, CSTRESS
** 
** HISTORY OUTPUT: H-Output-1
** 
*Output, history, variable=PRESELECT
*End Step
** ----------------------------------------------------------------
** 
** STEP: Temp_down
** 
*Step, name=Temp_down, nlgeom=YES, inc=50000
*Static
0.01, 44., 0.00044, 0.01
** 
** PREDEFINED FIELDS
** 
** Name: Temp_down   Type: Temperature
*Temperature, amplitude=Temp_down
Set-19, 1.
** 
** OUTPUT REQUESTS
** 
*Restart, write, frequency=0
** 
** FIELD OUTPUT: F-Output-1
** 
*Output, field
*Node Output
CF, NT, RF, U
*Element Output, directions=YES
LE, MISES, PE, PEEQ, PEMAG, S, SDV, TEMP
*Contact Output
CDISP, CSTRESS
** 
** HISTORY OUTPUT: H-Output-1
** 
*Output, history, variable=PRESELECT
*End Step
